********************************************************************************
Field Output Report, written Tue Jun 03 12:17:46 2025

Source 1
---------

   ODB: C:/lnms/Vid/VF/LinearnaPolja/PoljeU2/PoljeU2.odb
   Step: loading
   Frame: Increment      0: Step Time =    0.000

Loc 1 : Integration point values from source 1

Output sorted by column "Element Label".

Field Output reported at integration points for part: SPECIMEN-1

          Element              Int            S.S11            S.S22            S.S33            S.S12
            Label               Pt           @Loc 1           @Loc 1           @Loc 1           @Loc 1
-------------------------------------------------------------------------------------------------------
                1                1               0.               0.               0.               0.
                1                2               0.               0.               0.               0.
                1                3               0.               0.               0.               0.
                1                4               0.               0.               0.               0.
                2                1               0.               0.               0.               0.
                2                2               0.               0.               0.               0.
                2                3               0.               0.               0.               0.
                2                4               0.               0.               0.               0.
                3                1               0.               0.               0.               0.
                3                2               0.               0.               0.               0.
                3                3               0.               0.               0.               0.
                3                4               0.               0.               0.               0.
                4                1               0.               0.               0.               0.
                4                2               0.               0.               0.               0.
                4                3               0.               0.               0.               0.
                4                4               0.               0.               0.               0.
                5                1               0.               0.               0.               0.
                5                2               0.               0.               0.               0.
                5                3               0.               0.               0.               0.
                5                4               0.               0.               0.               0.
                6                1               0.               0.               0.               0.
                6                2               0.               0.               0.               0.
                6                3               0.               0.               0.               0.
                6                4               0.               0.               0.               0.
                7                1               0.               0.               0.               0.
                7                2               0.               0.               0.               0.
                7                3               0.               0.               0.               0.
                7                4               0.               0.               0.               0.
                8                1               0.               0.               0.               0.
                8                2               0.               0.               0.               0.
                8                3               0.               0.               0.               0.
                8                4               0.               0.               0.               0.
                9                1               0.               0.               0.               0.
                9                2               0.               0.               0.               0.
                9                3               0.               0.               0.               0.
                9                4               0.               0.               0.               0.
               10                1               0.               0.               0.               0.
               10                2               0.               0.               0.               0.
               10                3               0.               0.               0.               0.
               10                4               0.               0.               0.               0.
               11                1               0.               0.               0.               0.
               11                2               0.               0.               0.               0.
               11                3               0.               0.               0.               0.
               11                4               0.               0.               0.               0.
               12                1               0.               0.               0.               0.
               12                2               0.               0.               0.               0.
               12                3               0.               0.               0.               0.
               12                4               0.               0.               0.               0.
               13                1               0.               0.               0.               0.
               13                2               0.               0.               0.               0.
               13                3               0.               0.               0.               0.
               13                4               0.               0.               0.               0.
               14                1               0.               0.               0.               0.
               14                2               0.               0.               0.               0.
               14                3               0.               0.               0.               0.
               14                4               0.               0.               0.               0.
               15                1               0.               0.               0.               0.
               15                2               0.               0.               0.               0.
               15                3               0.               0.               0.               0.
               15                4               0.               0.               0.               0.
               16                1               0.               0.               0.               0.
               16                2               0.               0.               0.               0.
               16                3               0.               0.               0.               0.
               16                4               0.               0.               0.               0.
               17                1               0.               0.               0.               0.
               17                2               0.               0.               0.               0.
               17                3               0.               0.               0.               0.
               17                4               0.               0.               0.               0.
               18                1               0.               0.               0.               0.
               18                2               0.               0.               0.               0.
               18                3               0.               0.               0.               0.
               18                4               0.               0.               0.               0.
               19                1               0.               0.               0.               0.
               19                2               0.               0.               0.               0.
               19                3               0.               0.               0.               0.
               19                4               0.               0.               0.               0.
               20                1               0.               0.               0.               0.
               20                2               0.               0.               0.               0.
               20                3               0.               0.               0.               0.
               20                4               0.               0.               0.               0.
               21                1               0.               0.               0.               0.
               21                2               0.               0.               0.               0.
               21                3               0.               0.               0.               0.
               21                4               0.               0.               0.               0.
               22                1               0.               0.               0.               0.
               22                2               0.               0.               0.               0.
               22                3               0.               0.               0.               0.
               22                4               0.               0.               0.               0.
               23                1               0.               0.               0.               0.
               23                2               0.               0.               0.               0.
               23                3               0.               0.               0.               0.
               23                4               0.               0.               0.               0.
               24                1               0.               0.               0.               0.
               24                2               0.               0.               0.               0.
               24                3               0.               0.               0.               0.
               24                4               0.               0.               0.               0.
               25                1               0.               0.               0.               0.
               25                2               0.               0.               0.               0.
               25                3               0.               0.               0.               0.
               25                4               0.               0.               0.               0.
               26                1               0.               0.               0.               0.
               26                2               0.               0.               0.               0.
               26                3               0.               0.               0.               0.
               26                4               0.               0.               0.               0.
               27                1               0.               0.               0.               0.
               27                2               0.               0.               0.               0.
               27                3               0.               0.               0.               0.
               27                4               0.               0.               0.               0.
               28                1               0.               0.               0.               0.
               28                2               0.               0.               0.               0.
               28                3               0.               0.               0.               0.
               28                4               0.               0.               0.               0.
               29                1               0.               0.               0.               0.
               29                2               0.               0.               0.               0.
               29                3               0.               0.               0.               0.
               29                4               0.               0.               0.               0.
               30                1               0.               0.               0.               0.
               30                2               0.               0.               0.               0.
               30                3               0.               0.               0.               0.
               30                4               0.               0.               0.               0.
               31                1               0.               0.               0.               0.
               31                2               0.               0.               0.               0.
               31                3               0.               0.               0.               0.
               31                4               0.               0.               0.               0.
               32                1               0.               0.               0.               0.
               32                2               0.               0.               0.               0.
               32                3               0.               0.               0.               0.
               32                4               0.               0.               0.               0.
               33                1               0.               0.               0.               0.
               33                2               0.               0.               0.               0.
               33                3               0.               0.               0.               0.
               33                4               0.               0.               0.               0.
               34                1               0.               0.               0.               0.
               34                2               0.               0.               0.               0.
               34                3               0.               0.               0.               0.
               34                4               0.               0.               0.               0.
               35                1               0.               0.               0.               0.
               35                2               0.               0.               0.               0.
               35                3               0.               0.               0.               0.
               35                4               0.               0.               0.               0.
               36                1               0.               0.               0.               0.
               36                2               0.               0.               0.               0.
               36                3               0.               0.               0.               0.
               36                4               0.               0.               0.               0.
               37                1               0.               0.               0.               0.
               37                2               0.               0.               0.               0.
               37                3               0.               0.               0.               0.
               37                4               0.               0.               0.               0.
               38                1               0.               0.               0.               0.
               38                2               0.               0.               0.               0.
               38                3               0.               0.               0.               0.
               38                4               0.               0.               0.               0.
               39                1               0.               0.               0.               0.
               39                2               0.               0.               0.               0.
               39                3               0.               0.               0.               0.
               39                4               0.               0.               0.               0.
               40                1               0.               0.               0.               0.
               40                2               0.               0.               0.               0.
               40                3               0.               0.               0.               0.
               40                4               0.               0.               0.               0.
               41                1               0.               0.               0.               0.
               41                2               0.               0.               0.               0.
               41                3               0.               0.               0.               0.
               41                4               0.               0.               0.               0.
               42                1               0.               0.               0.               0.
               42                2               0.               0.               0.               0.
               42                3               0.               0.               0.               0.
               42                4               0.               0.               0.               0.
               43                1               0.               0.               0.               0.
               43                2               0.               0.               0.               0.
               43                3               0.               0.               0.               0.
               43                4               0.               0.               0.               0.
               44                1               0.               0.               0.               0.
               44                2               0.               0.               0.               0.
               44                3               0.               0.               0.               0.
               44                4               0.               0.               0.               0.
               45                1               0.               0.               0.               0.
               45                2               0.               0.               0.               0.
               45                3               0.               0.               0.               0.
               45                4               0.               0.               0.               0.
               46                1               0.               0.               0.               0.
               46                2               0.               0.               0.               0.
               46                3               0.               0.               0.               0.
               46                4               0.               0.               0.               0.
               47                1               0.               0.               0.               0.
               47                2               0.               0.               0.               0.
               47                3               0.               0.               0.               0.
               47                4               0.               0.               0.               0.
               48                1               0.               0.               0.               0.
               48                2               0.               0.               0.               0.
               48                3               0.               0.               0.               0.
               48                4               0.               0.               0.               0.
               49                1               0.               0.               0.               0.
               49                2               0.               0.               0.               0.
               49                3               0.               0.               0.               0.
               49                4               0.               0.               0.               0.
               50                1               0.               0.               0.               0.
               50                2               0.               0.               0.               0.
               50                3               0.               0.               0.               0.
               50                4               0.               0.               0.               0.
               51                1               0.               0.               0.               0.
               51                2               0.               0.               0.               0.
               51                3               0.               0.               0.               0.
               51                4               0.               0.               0.               0.
               52                1               0.               0.               0.               0.
               52                2               0.               0.               0.               0.
               52                3               0.               0.               0.               0.
               52                4               0.               0.               0.               0.
               53                1               0.               0.               0.               0.
               53                2               0.               0.               0.               0.
               53                3               0.               0.               0.               0.
               53                4               0.               0.               0.               0.
               54                1               0.               0.               0.               0.
               54                2               0.               0.               0.               0.
               54                3               0.               0.               0.               0.
               54                4               0.               0.               0.               0.
               55                1               0.               0.               0.               0.
               55                2               0.               0.               0.               0.
               55                3               0.               0.               0.               0.
               55                4               0.               0.               0.               0.
               56                1               0.               0.               0.               0.
               56                2               0.               0.               0.               0.
               56                3               0.               0.               0.               0.
               56                4               0.               0.               0.               0.
               57                1               0.               0.               0.               0.
               57                2               0.               0.               0.               0.
               57                3               0.               0.               0.               0.
               57                4               0.               0.               0.               0.
               58                1               0.               0.               0.               0.
               58                2               0.               0.               0.               0.
               58                3               0.               0.               0.               0.
               58                4               0.               0.               0.               0.
               59                1               0.               0.               0.               0.
               59                2               0.               0.               0.               0.
               59                3               0.               0.               0.               0.
               59                4               0.               0.               0.               0.
               60                1               0.               0.               0.               0.
               60                2               0.               0.               0.               0.
               60                3               0.               0.               0.               0.
               60                4               0.               0.               0.               0.
               61                1               0.               0.               0.               0.
               61                2               0.               0.               0.               0.
               61                3               0.               0.               0.               0.
               61                4               0.               0.               0.               0.
               62                1               0.               0.               0.               0.
               62                2               0.               0.               0.               0.
               62                3               0.               0.               0.               0.
               62                4               0.               0.               0.               0.
               63                1               0.               0.               0.               0.
               63                2               0.               0.               0.               0.
               63                3               0.               0.               0.               0.
               63                4               0.               0.               0.               0.
               64                1               0.               0.               0.               0.
               64                2               0.               0.               0.               0.
               64                3               0.               0.               0.               0.
               64                4               0.               0.               0.               0.
               65                1               0.               0.               0.               0.
               65                2               0.               0.               0.               0.
               65                3               0.               0.               0.               0.
               65                4               0.               0.               0.               0.
               66                1               0.               0.               0.               0.
               66                2               0.               0.               0.               0.
               66                3               0.               0.               0.               0.
               66                4               0.               0.               0.               0.
               67                1               0.               0.               0.               0.
               67                2               0.               0.               0.               0.
               67                3               0.               0.               0.               0.
               67                4               0.               0.               0.               0.
               68                1               0.               0.               0.               0.
               68                2               0.               0.               0.               0.
               68                3               0.               0.               0.               0.
               68                4               0.               0.               0.               0.
               69                1               0.               0.               0.               0.
               69                2               0.               0.               0.               0.
               69                3               0.               0.               0.               0.
               69                4               0.               0.               0.               0.
               70                1               0.               0.               0.               0.
               70                2               0.               0.               0.               0.
               70                3               0.               0.               0.               0.
               70                4               0.               0.               0.               0.
               71                1               0.               0.               0.               0.
               71                2               0.               0.               0.               0.
               71                3               0.               0.               0.               0.
               71                4               0.               0.               0.               0.
               72                1               0.               0.               0.               0.
               72                2               0.               0.               0.               0.
               72                3               0.               0.               0.               0.
               72                4               0.               0.               0.               0.
               73                1               0.               0.               0.               0.
               73                2               0.               0.               0.               0.
               73                3               0.               0.               0.               0.
               73                4               0.               0.               0.               0.
               74                1               0.               0.               0.               0.
               74                2               0.               0.               0.               0.
               74                3               0.               0.               0.               0.
               74                4               0.               0.               0.               0.
               75                1               0.               0.               0.               0.
               75                2               0.               0.               0.               0.
               75                3               0.               0.               0.               0.
               75                4               0.               0.               0.               0.
               76                1               0.               0.               0.               0.
               76                2               0.               0.               0.               0.
               76                3               0.               0.               0.               0.
               76                4               0.               0.               0.               0.
               77                1               0.               0.               0.               0.
               77                2               0.               0.               0.               0.
               77                3               0.               0.               0.               0.
               77                4               0.               0.               0.               0.
               78                1               0.               0.               0.               0.
               78                2               0.               0.               0.               0.
               78                3               0.               0.               0.               0.
               78                4               0.               0.               0.               0.
               79                1               0.               0.               0.               0.
               79                2               0.               0.               0.               0.
               79                3               0.               0.               0.               0.
               79                4               0.               0.               0.               0.
               80                1               0.               0.               0.               0.
               80                2               0.               0.               0.               0.
               80                3               0.               0.               0.               0.
               80                4               0.               0.               0.               0.
               81                1               0.               0.               0.               0.
               81                2               0.               0.               0.               0.
               81                3               0.               0.               0.               0.
               81                4               0.               0.               0.               0.
               82                1               0.               0.               0.               0.
               82                2               0.               0.               0.               0.
               82                3               0.               0.               0.               0.
               82                4               0.               0.               0.               0.
               83                1               0.               0.               0.               0.
               83                2               0.               0.               0.               0.
               83                3               0.               0.               0.               0.
               83                4               0.               0.               0.               0.
               84                1               0.               0.               0.               0.
               84                2               0.               0.               0.               0.
               84                3               0.               0.               0.               0.
               84                4               0.               0.               0.               0.
               85                1               0.               0.               0.               0.
               85                2               0.               0.               0.               0.
               85                3               0.               0.               0.               0.
               85                4               0.               0.               0.               0.
               86                1               0.               0.               0.               0.
               86                2               0.               0.               0.               0.
               86                3               0.               0.               0.               0.
               86                4               0.               0.               0.               0.
               87                1               0.               0.               0.               0.
               87                2               0.               0.               0.               0.
               87                3               0.               0.               0.               0.
               87                4               0.               0.               0.               0.
               88                1               0.               0.               0.               0.
               88                2               0.               0.               0.               0.
               88                3               0.               0.               0.               0.
               88                4               0.               0.               0.               0.
               89                1               0.               0.               0.               0.
               89                2               0.               0.               0.               0.
               89                3               0.               0.               0.               0.
               89                4               0.               0.               0.               0.
               90                1               0.               0.               0.               0.
               90                2               0.               0.               0.               0.
               90                3               0.               0.               0.               0.
               90                4               0.               0.               0.               0.
               91                1               0.               0.               0.               0.
               91                2               0.               0.               0.               0.
               91                3               0.               0.               0.               0.
               91                4               0.               0.               0.               0.
               92                1               0.               0.               0.               0.
               92                2               0.               0.               0.               0.
               92                3               0.               0.               0.               0.
               92                4               0.               0.               0.               0.
               93                1               0.               0.               0.               0.
               93                2               0.               0.               0.               0.
               93                3               0.               0.               0.               0.
               93                4               0.               0.               0.               0.
               94                1               0.               0.               0.               0.
               94                2               0.               0.               0.               0.
               94                3               0.               0.               0.               0.
               94                4               0.               0.               0.               0.
               95                1               0.               0.               0.               0.
               95                2               0.               0.               0.               0.
               95                3               0.               0.               0.               0.
               95                4               0.               0.               0.               0.
               96                1               0.               0.               0.               0.
               96                2               0.               0.               0.               0.
               96                3               0.               0.               0.               0.
               96                4               0.               0.               0.               0.
               97                1               0.               0.               0.               0.
               97                2               0.               0.               0.               0.
               97                3               0.               0.               0.               0.
               97                4               0.               0.               0.               0.
               98                1               0.               0.               0.               0.
               98                2               0.               0.               0.               0.
               98                3               0.               0.               0.               0.
               98                4               0.               0.               0.               0.
               99                1               0.               0.               0.               0.
               99                2               0.               0.               0.               0.
               99                3               0.               0.               0.               0.
               99                4               0.               0.               0.               0.
              100                1               0.               0.               0.               0.
              100                2               0.               0.               0.               0.
              100                3               0.               0.               0.               0.
              100                4               0.               0.               0.               0.
              101                1               0.               0.               0.               0.
              101                2               0.               0.               0.               0.
              101                3               0.               0.               0.               0.
              101                4               0.               0.               0.               0.
              102                1               0.               0.               0.               0.
              102                2               0.               0.               0.               0.
              102                3               0.               0.               0.               0.
              102                4               0.               0.               0.               0.
              103                1               0.               0.               0.               0.
              103                2               0.               0.               0.               0.
              103                3               0.               0.               0.               0.
              103                4               0.               0.               0.               0.
              104                1               0.               0.               0.               0.
              104                2               0.               0.               0.               0.
              104                3               0.               0.               0.               0.
              104                4               0.               0.               0.               0.
              105                1               0.               0.               0.               0.
              105                2               0.               0.               0.               0.
              105                3               0.               0.               0.               0.
              105                4               0.               0.               0.               0.
              106                1               0.               0.               0.               0.
              106                2               0.               0.               0.               0.
              106                3               0.               0.               0.               0.
              106                4               0.               0.               0.               0.
              107                1               0.               0.               0.               0.
              107                2               0.               0.               0.               0.
              107                3               0.               0.               0.               0.
              107                4               0.               0.               0.               0.
              108                1               0.               0.               0.               0.
              108                2               0.               0.               0.               0.
              108                3               0.               0.               0.               0.
              108                4               0.               0.               0.               0.
              109                1               0.               0.               0.               0.
              109                2               0.               0.               0.               0.
              109                3               0.               0.               0.               0.
              109                4               0.               0.               0.               0.
              110                1               0.               0.               0.               0.
              110                2               0.               0.               0.               0.
              110                3               0.               0.               0.               0.
              110                4               0.               0.               0.               0.
              111                1               0.               0.               0.               0.
              111                2               0.               0.               0.               0.
              111                3               0.               0.               0.               0.
              111                4               0.               0.               0.               0.
              112                1               0.               0.               0.               0.
              112                2               0.               0.               0.               0.
              112                3               0.               0.               0.               0.
              112                4               0.               0.               0.               0.
              113                1               0.               0.               0.               0.
              113                2               0.               0.               0.               0.
              113                3               0.               0.               0.               0.
              113                4               0.               0.               0.               0.
              114                1               0.               0.               0.               0.
              114                2               0.               0.               0.               0.
              114                3               0.               0.               0.               0.
              114                4               0.               0.               0.               0.
              115                1               0.               0.               0.               0.
              115                2               0.               0.               0.               0.
              115                3               0.               0.               0.               0.
              115                4               0.               0.               0.               0.
              116                1               0.               0.               0.               0.
              116                2               0.               0.               0.               0.
              116                3               0.               0.               0.               0.
              116                4               0.               0.               0.               0.
              117                1               0.               0.               0.               0.
              117                2               0.               0.               0.               0.
              117                3               0.               0.               0.               0.
              117                4               0.               0.               0.               0.
              118                1               0.               0.               0.               0.
              118                2               0.               0.               0.               0.
              118                3               0.               0.               0.               0.
              118                4               0.               0.               0.               0.
              119                1               0.               0.               0.               0.
              119                2               0.               0.               0.               0.
              119                3               0.               0.               0.               0.
              119                4               0.               0.               0.               0.
              120                1               0.               0.               0.               0.
              120                2               0.               0.               0.               0.
              120                3               0.               0.               0.               0.
              120                4               0.               0.               0.               0.
              121                1               0.               0.               0.               0.
              121                2               0.               0.               0.               0.
              121                3               0.               0.               0.               0.
              121                4               0.               0.               0.               0.
              122                1               0.               0.               0.               0.
              122                2               0.               0.               0.               0.
              122                3               0.               0.               0.               0.
              122                4               0.               0.               0.               0.
              123                1               0.               0.               0.               0.
              123                2               0.               0.               0.               0.
              123                3               0.               0.               0.               0.
              123                4               0.               0.               0.               0.
              124                1               0.               0.               0.               0.
              124                2               0.               0.               0.               0.
              124                3               0.               0.               0.               0.
              124                4               0.               0.               0.               0.
              125                1               0.               0.               0.               0.
              125                2               0.               0.               0.               0.
              125                3               0.               0.               0.               0.
              125                4               0.               0.               0.               0.
              126                1               0.               0.               0.               0.
              126                2               0.               0.               0.               0.
              126                3               0.               0.               0.               0.
              126                4               0.               0.               0.               0.
              127                1               0.               0.               0.               0.
              127                2               0.               0.               0.               0.
              127                3               0.               0.               0.               0.
              127                4               0.               0.               0.               0.
              128                1               0.               0.               0.               0.
              128                2               0.               0.               0.               0.
              128                3               0.               0.               0.               0.
              128                4               0.               0.               0.               0.
              129                1               0.               0.               0.               0.
              129                2               0.               0.               0.               0.
              129                3               0.               0.               0.               0.
              129                4               0.               0.               0.               0.
              130                1               0.               0.               0.               0.
              130                2               0.               0.               0.               0.
              130                3               0.               0.               0.               0.
              130                4               0.               0.               0.               0.
              131                1               0.               0.               0.               0.
              131                2               0.               0.               0.               0.
              131                3               0.               0.               0.               0.
              131                4               0.               0.               0.               0.
              132                1               0.               0.               0.               0.
              132                2               0.               0.               0.               0.
              132                3               0.               0.               0.               0.
              132                4               0.               0.               0.               0.
              133                1               0.               0.               0.               0.
              133                2               0.               0.               0.               0.
              133                3               0.               0.               0.               0.
              133                4               0.               0.               0.               0.
              134                1               0.               0.               0.               0.
              134                2               0.               0.               0.               0.
              134                3               0.               0.               0.               0.
              134                4               0.               0.               0.               0.
              135                1               0.               0.               0.               0.
              135                2               0.               0.               0.               0.
              135                3               0.               0.               0.               0.
              135                4               0.               0.               0.               0.
              136                1               0.               0.               0.               0.
              136                2               0.               0.               0.               0.
              136                3               0.               0.               0.               0.
              136                4               0.               0.               0.               0.
              137                1               0.               0.               0.               0.
              137                2               0.               0.               0.               0.
              137                3               0.               0.               0.               0.
              137                4               0.               0.               0.               0.
              138                1               0.               0.               0.               0.
              138                2               0.               0.               0.               0.
              138                3               0.               0.               0.               0.
              138                4               0.               0.               0.               0.
              139                1               0.               0.               0.               0.
              139                2               0.               0.               0.               0.
              139                3               0.               0.               0.               0.
              139                4               0.               0.               0.               0.
              140                1               0.               0.               0.               0.
              140                2               0.               0.               0.               0.
              140                3               0.               0.               0.               0.
              140                4               0.               0.               0.               0.
              141                1               0.               0.               0.               0.
              141                2               0.               0.               0.               0.
              141                3               0.               0.               0.               0.
              141                4               0.               0.               0.               0.
              142                1               0.               0.               0.               0.
              142                2               0.               0.               0.               0.
              142                3               0.               0.               0.               0.
              142                4               0.               0.               0.               0.
              143                1               0.               0.               0.               0.
              143                2               0.               0.               0.               0.
              143                3               0.               0.               0.               0.
              143                4               0.               0.               0.               0.
              144                1               0.               0.               0.               0.
              144                2               0.               0.               0.               0.
              144                3               0.               0.               0.               0.
              144                4               0.               0.               0.               0.
              145                1               0.               0.               0.               0.
              145                2               0.               0.               0.               0.
              145                3               0.               0.               0.               0.
              145                4               0.               0.               0.               0.
              146                1               0.               0.               0.               0.
              146                2               0.               0.               0.               0.
              146                3               0.               0.               0.               0.
              146                4               0.               0.               0.               0.
              147                1               0.               0.               0.               0.
              147                2               0.               0.               0.               0.
              147                3               0.               0.               0.               0.
              147                4               0.               0.               0.               0.
              148                1               0.               0.               0.               0.
              148                2               0.               0.               0.               0.
              148                3               0.               0.               0.               0.
              148                4               0.               0.               0.               0.
              149                1               0.               0.               0.               0.
              149                2               0.               0.               0.               0.
              149                3               0.               0.               0.               0.
              149                4               0.               0.               0.               0.
              150                1               0.               0.               0.               0.
              150                2               0.               0.               0.               0.
              150                3               0.               0.               0.               0.
              150                4               0.               0.               0.               0.
              151                1               0.               0.               0.               0.
              151                2               0.               0.               0.               0.
              151                3               0.               0.               0.               0.
              151                4               0.               0.               0.               0.
              152                1               0.               0.               0.               0.
              152                2               0.               0.               0.               0.
              152                3               0.               0.               0.               0.
              152                4               0.               0.               0.               0.


********************************************************************************
Field Output Report, written Tue Jun 03 12:17:58 2025

Source 1
---------

   ODB: C:/lnms/Vid/VF/LinearnaPolja/PoljeU2/PoljeU2.odb
   Step: loading
   Frame: Increment      1: Step Time =   0.1000

Loc 1 : Integration point values from source 1

Output sorted by column "Element Label".

Field Output reported at integration points for part: SPECIMEN-1

          Element              Int            S.S11            S.S22            S.S33            S.S12
            Label               Pt           @Loc 1           @Loc 1           @Loc 1           @Loc 1
-------------------------------------------------------------------------------------------------------
                1                1   1.37880398E-03   2.00047763E-03               0.  -1.49199029E-03
                1                2   1.19661039E-03   2.20834208E-03               0.  -1.53863698E-03
                1                3   1.09736493E-03   1.81679125E-03               0.  -1.37413235E-03
                1                4   945.095671E-06   2.00009509E-03               0.  -1.41672185E-03
                2                1   667.382730E-06   2.66922382E-03               0.  -1.30289129E-03
                2                2   656.188466E-06   2.99590430E-03               0.  -1.25473225E-03
                2                3   541.005342E-06   2.53567658E-03               0.  -1.20778626E-03
                2                4   513.661886E-06   2.79506017E-03               0.  -1.15337037E-03
                3                1   484.520366E-06   3.18858563E-03               0.  -1.00076001E-03
                3                2   421.510777E-06   3.29442881E-03               0.  -994.099770E-06
                3                3   709.782995E-06   3.41491657E-03               0.  -879.004190E-06
                3                4   688.064494E-06   3.53608862E-03               0.  -856.322469E-06
                4                1   493.614411E-06   3.29873408E-03               0.  -1.07571704E-03
                4                2   579.816115E-06   3.62500944E-03               0.  -1.16980262E-03
                4                3   615.923316E-06   3.64132482E-03               0.  -904.333720E-06
                4                4   716.580369E-06   4.00509406E-03               0.  -970.574445E-06
                5                1   1.13142643E-03   3.18575115E-03               0.  -1.66934030E-03
                5                2   1.63061253E-03   3.82934278E-03               0.  -1.97044201E-03
                5                3   783.962780E-06   3.51148145E-03               0.  -1.54096528E-03
                5                4   1.25422282E-03   4.24135802E-03               0.  -1.83759013E-03
                6                1   1.55544735E-03   5.55156684E-03               0.  -1.96383707E-03
                6                2   1.18126604E-03   6.12147851E-03               0.  -1.42418919E-03
                6                3   950.980058E-06   4.14310861E-03               0.  -1.59673498E-03
                6                4   630.329130E-06   4.66180220E-03               0.  -1.12772093E-03
                7                1   1.09617948E-03   6.52752537E-03               0.  -1.02788315E-03
                7                2   1.03661814E-03   6.84086373E-03               0.  -300.588756E-06
                7                3   483.370532E-06   4.55686217E-03               0.  -869.061565E-06
                7                4   485.981727E-06   5.02114836E-03               0.  -226.949065E-06
                8                1   1.08550244E-03   4.03144816E-03               0.  -956.234173E-06
                8                2   1.31870143E-03   4.51941788E-03               0.  -572.404824E-06
                8                3   888.760376E-06   3.29224556E-03               0.  -873.452635E-06
                8                4   1.09639100E-03   3.72649613E-03               0.  -531.436992E-06
                9                1   1.38731860E-03   4.01050318E-03               0.  -499.445072E-06
                9                2   1.64829125E-03   4.45934152E-03               0.  -25.3158196E-06
                9                3   1.08035631E-03   2.93918233E-03               0.  -486.854668E-06
                9                4   1.32545654E-03   3.37083032E-03               0.  -52.1704133E-06
               10                1   992.645044E-06   2.78576487E-03               0.  -827.837328E-06
               10                2   1.57181162E-03   3.38654011E-03               0.  -359.542755E-06
               10                3   857.522129E-06   2.01665028E-03               0.  -836.301828E-06
               10                4   1.36015471E-03   2.48833210E-03               0.  -421.924837E-06
               11                1   1.65024912E-03   2.61441362E-03               0.  -313.840428E-06
               11                2   1.88938121E-03   2.95401178E-03               0.   27.6579467E-06
               11                3   1.44749170E-03   1.90460216E-03               0.  -330.314215E-06
               11                4   1.66328868E-03   2.19032820E-03               0.  -8.71948214E-06
               12                1   2.09155958E-03   1.90171518E-03               0.   28.4270209E-06
               12                2   1.89565471E-03   1.26357924E-03               0.  -42.7179148E-06
               12                3   1.84086920E-03   1.67762255E-03               0.  -229.197627E-06
               12                4   1.64760009E-03   1.08030241E-03               0.  -308.446906E-06
               13                1   2.22065183E-03   1.06161297E-03               0.   3.30100056E-06
               13                2   2.12511537E-03   751.675921E-06               0.  -32.4128596E-06
               13                3   2.12179543E-03   1.00211543E-03               0.  -104.055907E-06
               13                4   2.02695769E-03   713.002752E-06               0.  -144.510457E-06
               14                1   1.89419196E-03   2.27567577E-03               0.  -226.242657E-06
               14                2   1.54804951E-03   1.28835125E-03               0.  -400.754623E-06
               14                3   1.50058919E-03   1.92837918E-03               0.  -572.074961E-06
               14                4   1.15066092E-03   1.01977389E-03               0.  -765.511708E-06
               15                1   2.06634332E-03   1.07118790E-03               0.  -94.5278589E-06
               15                2   1.92209182E-03   707.072730E-06               0.  -200.904324E-06
               15                3   1.84318586E-03   978.217344E-06               0.  -207.710356E-06
               15                4   1.69137970E-03   629.781222E-06               0.  -315.861660E-06
               16                1   1.49492675E-03   507.503224E-06               0.  -362.759049E-06
               16                2   1.17785414E-03   415.231450E-06               0.  -412.997906E-06
               16                3   1.63766788E-03   707.801897E-06               0.  -219.485897E-06
               16                4   1.33306754E-03   626.687484E-06               0.  -262.027519E-06
               17                1   808.005745E-06   242.022885E-06               0.  -381.794089E-06
               17                2   11.9508204E-06   3.18132334E-06               0.  -374.232826E-06
               17                3   1.03923399E-03   310.223462E-06               0.  -47.2538450E-06
               17                4   179.755298E-06   52.2671107E-06               0.  -14.5463373E-06
               18                1   1.08029356E-03   1.01246324E-03               0.  -786.710647E-06
               18                2   812.443905E-06   1.01200165E-03               0.  -962.629681E-06
               18                3   1.37826032E-03   1.67355244E-03               0.  -597.418344E-06
               18                4   1.16664113E-03   1.75177050E-03               0.  -737.168419E-06
               19                1   841.971603E-06   620.193256E-06               0.  -774.055661E-06
               19                2   499.578426E-06   525.923795E-06               0.  -766.269513E-06
               19                3   1.03951106E-03   732.349348E-06               0.  -614.757882E-06
               19                4   720.004260E-06   651.229871E-06               0.  -588.073803E-06
               20                1   1.04188174E-03   2.04284978E-03               0.  -1.39133539E-03
               20                2   939.871417E-06   2.24406528E-03               0.  -1.40985101E-03
               20                3   804.860494E-06   1.85547711E-03               0.  -1.27555907E-03
               20                4   728.416140E-06   2.03963765E-03               0.  -1.29752688E-03
               21                1   297.232124E-06   2.73426855E-03               0.  -1.36516290E-03
               21                2   472.832151E-06   3.12511297E-03               0.  -1.24426198E-03
               21                3   318.769016E-06   2.61377101E-03               0.  -1.29109679E-03
               21                4   472.435844E-06   2.94792769E-03               0.  -1.18252926E-03
               22                1   305.592810E-06   3.16155772E-03               0.  -1.22075400E-03
               22                2   429.251726E-06   3.23711429E-03               0.  -1.16061512E-03
               22                3   387.933862E-06   3.17460741E-03               0.  -1.22611318E-03
               22                4   506.637502E-06   3.24148498E-03               0.  -1.17527053E-03
               23                1   682.055368E-06   3.30867898E-03               0.  -1.19723112E-03
               23                2   849.054137E-06   3.64127755E-03               0.  -1.31621701E-03
               23                3   673.905073E-06   3.66532919E-03               0.  -1.09029945E-03
               23                4   816.148007E-06   4.00463725E-03               0.  -1.17645622E-03
               24                1   1.35915203E-03   3.17560020E-03               0.  -1.80960656E-03
               24                2   1.91341655E-03   3.87708214E-03               0.  -2.14024773E-03
               24                3   893.245917E-06   3.61825712E-03               0.  -1.67196407E-03
               24                4   1.38600939E-03   4.40666871E-03               0.  -1.98830874E-03
               25                1   1.58997939E-03   5.39434096E-03               0.  -2.18763272E-03
               25                2   1.04615977E-03   5.90186426E-03               0.  -1.67511427E-03
               25                3   1.04344136E-03   4.14235983E-03               0.  -1.85481994E-03
               25                4   557.632011E-06   4.59884480E-03               0.  -1.39665208E-03
               26                1   897.605962E-06   5.59573574E-03               0.  -1.06406177E-03
               26                2   1.62647956E-03   6.05490711E-03               0.  -459.366449E-06
               26                3   548.559066E-06   4.25856980E-03               0.  -1.20388367E-03
               26                4   1.26326177E-03   4.80559655E-03               0.  -623.917615E-06
               27                1   1.15114846E-03   3.82702588E-03               0.  -1.33062259E-03
               27                2   1.33599644E-03   4.36436431E-03               0.  -849.637028E-06
               27                3   873.043493E-06   2.88261264E-03               0.  -1.23155210E-03
               27                4   1.01670716E-03   3.29029234E-03               0.  -797.599030E-06
               28                1   1.29664992E-03   3.93907772E-03               0.  -940.098951E-06
               28                2   1.28159055E-03   4.16748133E-03               0.  -607.750029E-06
               28                3   1.05653075E-03   3.15575115E-03               0.  -893.412333E-06
               28                4   1.03804655E-03   3.36040324E-03               0.  -575.327664E-06
               29                1   982.500846E-06   2.94837425E-03               0.  -488.403777E-06
               29                2   823.566981E-06   2.39675911E-03               0.  -403.382233E-06
               29                3   1.21125556E-03   2.90200859E-03               0.  -667.830056E-06
               29                4   1.07806164E-03   2.38763890E-03               0.  -600.114814E-06
               30                1   799.376692E-06   2.15927279E-03               0.  -248.269411E-06
               30                2   762.512907E-06   1.99244358E-03               0.  -89.6498095E-06
               30                3   1.20818021E-03   2.26724753E-03               0.  -287.193601E-06
               30                4   1.20696658E-03   2.12116330E-03               0.  -143.154379E-06
               31                1   1.42177090E-03   3.09957773E-03               0.  -458.739349E-06
               31                2   1.13915105E-03   2.22363090E-03               0.  -555.290491E-06
               31                3   1.24228944E-03   2.85276864E-03               0.  -742.381148E-06
               31                4   970.252382E-06   2.04752130E-03               0.  -862.544228E-06
               32                1   1.32773176E-03   1.96766062E-03               0.  -189.050275E-06
               32                2   1.26577332E-03   1.71190745E-03               0.  -169.010193E-06
               32                3   1.40337436E-03   1.97292608E-03               0.  -260.961271E-06
               32                4   1.35121297E-03   1.73203379E-03               0.  -248.043420E-06
               33                1   1.26734038E-03   1.36563706E-03               0.  -304.230285E-06
               33                2   1.22058892E-03   1.35504978E-03               0.  -353.216165E-06
               33                3   1.33110117E-03   1.53284031E-03               0.  -269.493379E-06
               33                4   1.29024033E-03   1.53222028E-03               0.  -314.119767E-06
               34                1   993.338530E-06   853.549107E-06               0.  -405.473140E-06
               34                2   708.551670E-06   770.541723E-06               0.  -426.722370E-06
               34                3   1.11687812E-03   960.979902E-06               0.  -288.421958E-06
               34                4   840.783177E-06   887.414673E-06               0.  -298.591884E-06
               35                1   251.169578E-06   385.529362E-06               0.  -382.907194E-06
               35                2  -736.168644E-06   85.8772546E-06               0.  -332.618540E-06
               35                3   499.236747E-06   357.312878E-06               0.  -38.4776213E-06
               35                4  -574.645004E-06   19.2540429E-06               0.   58.1036038E-06
               36                1   943.431107E-06   1.88319408E-03               0.  -865.052454E-06
               36                2   722.400437E-06   1.89392362E-03               0.  -1.01019035E-03
               36                3   1.19769783E-03   2.44046841E-03               0.  -703.426776E-06
               36                4   1.02425960E-03   2.51627970E-03               0.  -817.944820E-06
               37                1   570.752600E-06   1.37893425E-03               0.  -1.03896682E-03
               37                2   359.688041E-06   1.38174370E-03               0.  -1.12279819E-03
               37                3   789.592450E-06   1.75477914E-03               0.  -893.325254E-06
               37                4   607.109629E-06   1.80373120E-03               0.  -958.591700E-06
               38                1   414.772716E-06   796.219218E-06               0.  -841.682253E-06
               38                2  -104.655737E-06   622.998283E-06               0.  -769.490493E-06
               38                3   640.090846E-06   788.853155E-06               0.  -655.659882E-06
               38                4   142.851903E-06   611.326017E-06               0.  -555.715931E-06
               39                1   1.38647272E-03   4.40649549E-03               0.   1.98862609E-03
               39                2   1.91421120E-03   3.87677946E-03               0.   2.14033294E-03
               39                3   892.758311E-06   3.61759891E-03               0.   1.67177711E-03
               39                4   1.35878567E-03   3.17419670E-03               0.   1.80906290E-03
               40                1   814.773375E-06   4.00283420E-03               0.   1.17725378E-03
               40                2   848.856231E-06   3.64059326E-03               0.   1.31579558E-03
               40                3   672.159716E-06   3.66417272E-03               0.   1.09065126E-03
               40                4   681.054953E-06   3.30786197E-03               0.   1.19641621E-03
               41                1   505.832722E-06   3.24121490E-03               0.   1.17512874E-03
               41                2   429.224019E-06   3.24004609E-03               0.   1.16187660E-03
               41                3   386.733853E-06   3.16946045E-03               0.   1.22750434E-03
               41                4   305.267517E-06   3.15841776E-03               0.   1.22363772E-03
               42                1   469.638035E-06   2.95073888E-03               0.   1.18137687E-03
               42                2   468.398939E-06   3.12329130E-03               0.   1.24097336E-03
               42                3   315.077254E-06   2.61677126E-03               0.   1.28975522E-03
               42                4   291.743898E-06   2.73545831E-03               0.   1.36279152E-03
               43                1   730.252883E-06   2.04198342E-03               0.   1.30207231E-03
               43                2   935.489079E-06   2.23845709E-03               0.   1.41044986E-03
               43                3   807.322096E-06   1.87049748E-03               0.   1.28106738E-03
               43                4   1.03582733E-03   2.04999326E-03               0.   1.39185740E-03
               44                1   142.474644E-06   621.354906E-06               0.   559.869804E-06
               44                2  -99.7990646E-06   637.090649E-06               0.   770.405459E-06
               44                3   636.950368E-06   799.493515E-06               0.   661.308179E-06
               44                4   418.078183E-06   811.002508E-06               0.   844.669994E-06
               45                1  -572.151854E-06   17.1163210E-06               0.  -56.6646486E-06
               45                2  -731.384964E-06   86.4944377E-06               0.   333.479256E-06
               45                3   495.771121E-06   354.171876E-06               0.   42.0954602E-06
               45                4   254.126644E-06   385.793450E-06               0.   384.866988E-06
               46                1   611.801224E-06   1.81047304E-03               0.   963.162805E-06
               46                2   362.032821E-06   1.37622119E-03               0.   1.12849660E-03
               46                3   789.632555E-06   1.75966730E-03               0.   895.404199E-06
               46                4   567.400304E-06   1.37289322E-03               0.   1.04256556E-03
               47                1   843.057467E-06   893.169432E-06               0.   299.212785E-06
               47                2   710.112799E-06   772.100175E-06               0.   428.114581E-06
               47                3   1.11960003E-03   966.793275E-06               0.   287.275354E-06
               47                4   992.668676E-06   854.459300E-06               0.   405.661587E-06
               48                1   1.02060940E-03   2.51072994E-03               0.   818.022003E-06
               48                2   718.143885E-06   1.89010531E-03               0.   1.01083505E-03
               48                3   1.19519548E-03   2.43548164E-03               0.   703.735277E-06
               48                4   941.161416E-06   1.87968404E-03               0.   865.436159E-06
               49                1   1.28804380E-03   1.52853446E-03               0.   313.520228E-06
               49                2   1.21809356E-03   1.35350099E-03               0.   353.453972E-06
               49                3   1.33056322E-03   1.52978837E-03               0.   269.540731E-06
               49                4   1.26664946E-03   1.36466417E-03               0.   305.054593E-06
               50                1   1.35119318E-03   1.73164986E-03               0.   248.200697E-06
               50                2   1.26629462E-03   1.71159825E-03               0.   169.414459E-06
               50                3   1.40258716E-03   1.97066669E-03               0.   260.496803E-06
               50                4   1.32754305E-03   1.96522451E-03               0.   188.939302E-06
               51                1   1.20752375E-03   2.12135352E-03               0.   143.174373E-06
               51                2   762.611569E-06   1.99247641E-03               0.   89.6210258E-06
               51                3   1.20809232E-03   2.26710411E-03               0.   287.066796E-06
               51                4   799.230707E-06   2.15902040E-03               0.   248.078228E-06
               52                1   969.614019E-06   2.04628799E-03               0.   862.842717E-06
               52                2   1.13874883E-03   2.22127815E-03               0.   555.163715E-06
               52                3   1.24123483E-03   2.85033276E-03               0.   743.009208E-06
               52                4   1.42110034E-03   3.09646246E-03               0.   458.773167E-06
               53                1   1.07884291E-03   2.38778861E-03               0.   599.962834E-06
               53                2   823.666109E-06   2.39630742E-03               0.   403.130311E-06
               53                3   1.21198909E-03   2.90167308E-03               0.   667.847460E-06
               53                4   982.520985E-06   2.94756773E-03               0.   488.277117E-06
               54                1   1.03788357E-03   3.35952011E-03               0.   575.281389E-06
               54                2   1.28145202E-03   4.16663568E-03               0.   607.814116E-06
               54                3   1.05676334E-03   3.15534393E-03               0.   893.513614E-06
               54                4   1.29688391E-03   3.93852452E-03               0.   940.392376E-06
               55                1   1.26310007E-03   4.80484683E-03               0.   623.962085E-06
               55                2   1.62629073E-03   6.05425704E-03               0.   459.560426E-06
               55                3   548.917043E-06   4.25834907E-03               0.   1.20380847E-03
               55                4   897.627207E-06   5.59517369E-03               0.   1.06439146E-03
               56                1   1.01607980E-03   3.28829652E-03               0.   796.980108E-06
               56                2   1.33516139E-03   4.36134357E-03               0.   849.713921E-06
               56                3   874.052988E-06   2.88312184E-03               0.   1.23038492E-03
               56                4   1.15174195E-03   3.82554880E-03               0.   1.33038592E-03
               57                1   557.305757E-06   4.59739845E-03               0.   1.39606523E-03
               57                2   1.04633742E-03   5.90044633E-03               0.   1.67501939E-03
               57                3   1.04347419E-03   4.14182106E-03               0.   1.85400597E-03
               57                4   1.59053947E-03   5.39342081E-03               0.   2.18732143E-03
               58                1   1.25499244E-03   4.23607370E-03               0.   1.84015871E-03
               58                2   1.62932859E-03   3.82749061E-03               0.   1.97417312E-03
               58                3   791.191123E-06   3.51255969E-03               0.   1.54731516E-03
               58                4   1.13973848E-03   3.19476030E-03               0.   1.67855539E-03
               59                1   717.314833E-06   4.00357367E-03               0.   969.074317E-06
               59                2   581.116998E-06   3.62727605E-03               0.   1.16871612E-03
               59                3   616.798003E-06   3.63955810E-03               0.   902.831322E-06
               59                4   493.650674E-06   3.29525513E-03               0.   1.07328943E-03
               60                1   687.486550E-06   3.53085040E-03               0.   857.146631E-06
               60                2   422.185956E-06   3.29094823E-03               0.   993.752619E-06
               60                3   710.135850E-06   3.41253122E-03               0.   880.208507E-06
               60                4   485.691242E-06   3.18848644E-03               0.   1.00105279E-03
               61                1   514.683430E-06   2.79430323E-03               0.   1.15349749E-03
               61                2   657.137076E-06   2.99614365E-03               0.   1.25529035E-03
               61                3   540.421752E-06   2.53116922E-03               0.   1.20863563E-03
               61                4   666.699198E-06   2.66505731E-03               0.   1.30439270E-03
               62                1   945.305394E-06   2.00040336E-03               0.   1.41698611E-03
               62                2   1.19701354E-03   2.20921612E-03               0.   1.53913535E-03
               62                3   1.09719171E-03   1.81568612E-03               0.   1.37450104E-03
               62                4   1.37903669E-03   1.99980312E-03               0.   1.49269099E-03
               63                1   719.638600E-06   651.050999E-06               0.   587.488699E-06
               63                2   498.580106E-06   524.615753E-06               0.   766.068057E-06
               63                3   1.03958324E-03   732.118380E-06               0.   613.842742E-06
               63                4   841.337955E-06   618.900580E-06               0.   773.519743E-06
               64                1   179.266965E-06   52.4309580E-06               0.   14.3355392E-06
               64                2   11.3071892E-06   3.06384277E-06               0.   374.064402E-06
               64                3   1.03921734E-03   310.507283E-06               0.   46.8180042E-06
               64                4   807.573786E-06   241.964110E-06               0.   381.519378E-06
               65                1   1.16671110E-03   1.74995512E-03               0.   736.046873E-06
               65                2   811.329111E-06   1.00924261E-03               0.   962.414721E-06
               65                3   1.38031656E-03   1.67312659E-03               0.   595.780846E-06
               65                4   1.08095293E-03   1.01071910E-03               0.   786.156917E-06
               66                1   1.33260619E-03   625.797664E-06               0.   261.902169E-06
               66                2   1.17743714E-03   414.889539E-06               0.   412.818248E-06
               66                3   1.63746311E-03   707.076804E-06               0.   219.432521E-06
               66                4   1.49467459E-03   507.236167E-06               0.   362.700521E-06
               67                1   1.69129029E-03   629.631570E-06               0.   315.816491E-06
               67                2   1.92237145E-03   707.081635E-06               0.   200.772629E-06
               67                3   1.84319064E-03   977.887656E-06               0.   207.589517E-06
               67                4   2.06680712E-03   1.07116147E-03               0.   94.2526312E-06
               68                1   2.02726922E-03   712.856068E-06               0.   144.407139E-06
               68                2   2.12514470E-03   751.309330E-06               0.   32.5342953E-06
               68                3   2.12188624E-03   1.00116769E-03               0.   104.024497E-06
               68                4   2.22033355E-03   1.06008444E-03               0.  -3.04097512E-06
               69                1   1.15083135E-03   1.01698167E-03               0.   765.352102E-06
               69                2   1.54905859E-03   1.28637836E-03               0.   400.712510E-06
               69                3   1.50019233E-03   1.92237715E-03               0.   571.834913E-06
               69                4   1.89486460E-03   2.27082637E-03               0.   225.836993E-06
               70                1   1.64891453E-03   1.08011230E-03               0.   308.091985E-06
               70                2   1.89552235E-03   1.26118027E-03               0.   42.6597871E-06
               70                3   1.84183044E-03   1.67585898E-03               0.   229.013938E-06
               70                4   2.09049205E-03   1.89614273E-03               0.  -27.9531541E-06
               71                1   1.66222360E-03   2.18409486E-03               0.   8.26130963E-06
               71                2   1.88833359E-03   2.94764596E-03               0.  -27.3653859E-06
               71                3   1.44990114E-03   1.90357445E-03               0.   330.184179E-06
               71                4   1.65308721E-03   2.61422666E-03               0.   314.370234E-06
               72                1   1.32373348E-03   3.36460676E-03               0.   52.2008013E-06
               72                2   1.64925295E-03   4.46268031E-03               0.   26.1403493E-06
               72                3   1.08278985E-03   2.94127129E-03               0.   484.088290E-06
               72                4   1.38899731E-03   4.01161239E-03               0.   499.211019E-06
               73                1   487.614161E-06   5.03163505E-03               0.   229.247802E-06
               73                2   1.03573420E-03   6.84405118E-03               0.   300.275162E-06
               73                3   478.101836E-06   4.55805706E-03               0.   870.823802E-06
               73                4   1.08939630E-03   6.52819499E-03               0.   1.02443586E-03
               74                1   1.36195077E-03   2.48078280E-03               0.   421.792676E-06
               74                2   1.57230289E-03   3.37374560E-03               0.   359.423691E-06
               74                3   858.508691E-06   2.00880226E-03               0.   836.160732E-06
               74                4   992.973684E-06   2.77597457E-03               0.   827.552460E-06
               75                1   1.09291181E-03   3.71791981E-03               0.   531.217724E-06
               75                2   1.32067641E-03   4.52967966E-03               0.   576.092978E-06
               75                3   888.899667E-06   3.28630884E-03               0.   873.308338E-06
               75                4   1.08996662E-03   4.03908687E-03               0.   959.716446E-06
               76                1   633.090094E-06   4.67657484E-03               0.   1.13195309E-03
               76                2   1.17968023E-03   6.13144320E-03               0.   1.42477849E-03
               76                3   955.374097E-06   4.14798968E-03               0.   1.60254329E-03
               76                4   1.55771896E-03   5.55604557E-03               0.   1.96718890E-03
               77                1   1.04188174E-03   2.04284978E-03               0.  -1.39133539E-03
               77                2   939.871417E-06   2.24406528E-03               0.  -1.40985101E-03
               77                3   804.860494E-06   1.85547711E-03               0.  -1.27555907E-03
               77                4   728.416140E-06   2.03963765E-03               0.  -1.29752688E-03
               78                1   297.232124E-06   2.73426855E-03               0.  -1.36516290E-03
               78                2   472.832151E-06   3.12511297E-03               0.  -1.24426198E-03
               78                3   318.769016E-06   2.61377101E-03               0.  -1.29109679E-03
               78                4   472.435844E-06   2.94792769E-03               0.  -1.18252926E-03
               79                1   305.592810E-06   3.16155772E-03               0.  -1.22075400E-03
               79                2   429.251726E-06   3.23711429E-03               0.  -1.16061512E-03
               79                3   387.933862E-06   3.17460741E-03               0.  -1.22611318E-03
               79                4   506.637502E-06   3.24148498E-03               0.  -1.17527053E-03
               80                1   682.055368E-06   3.30867898E-03               0.  -1.19723112E-03
               80                2   849.054137E-06   3.64127755E-03               0.  -1.31621701E-03
               80                3   673.905073E-06   3.66532919E-03               0.  -1.09029945E-03
               80                4   816.148007E-06   4.00463725E-03               0.  -1.17645622E-03
               81                1   1.35915203E-03   3.17560020E-03               0.  -1.80960656E-03
               81                2   1.91341655E-03   3.87708214E-03               0.  -2.14024773E-03
               81                3   893.245917E-06   3.61825712E-03               0.  -1.67196407E-03
               81                4   1.38600939E-03   4.40666871E-03               0.  -1.98830874E-03
               82                1   1.58997939E-03   5.39434096E-03               0.  -2.18763272E-03
               82                2   1.04615977E-03   5.90186426E-03               0.  -1.67511427E-03
               82                3   1.04344136E-03   4.14235983E-03               0.  -1.85481994E-03
               82                4   557.632011E-06   4.59884480E-03               0.  -1.39665208E-03
               83                1   897.605962E-06   5.59573574E-03               0.  -1.06406177E-03
               83                2   1.62647956E-03   6.05490711E-03               0.  -459.366449E-06
               83                3   548.559066E-06   4.25856980E-03               0.  -1.20388367E-03
               83                4   1.26326177E-03   4.80559655E-03               0.  -623.917615E-06
               84                1   1.15114846E-03   3.82702588E-03               0.  -1.33062259E-03
               84                2   1.33599644E-03   4.36436431E-03               0.  -849.637028E-06
               84                3   873.043493E-06   2.88261264E-03               0.  -1.23155210E-03
               84                4   1.01670716E-03   3.29029234E-03               0.  -797.599030E-06
               85                1   1.29664992E-03   3.93907772E-03               0.  -940.098951E-06
               85                2   1.28159055E-03   4.16748133E-03               0.  -607.750029E-06
               85                3   1.05653075E-03   3.15575115E-03               0.  -893.412333E-06
               85                4   1.03804655E-03   3.36040324E-03               0.  -575.327664E-06
               86                1   982.500846E-06   2.94837425E-03               0.  -488.403777E-06
               86                2   823.566981E-06   2.39675911E-03               0.  -403.382233E-06
               86                3   1.21125556E-03   2.90200859E-03               0.  -667.830056E-06
               86                4   1.07806164E-03   2.38763890E-03               0.  -600.114814E-06
               87                1   799.376692E-06   2.15927279E-03               0.  -248.269411E-06
               87                2   762.512907E-06   1.99244358E-03               0.  -89.6498095E-06
               87                3   1.20818021E-03   2.26724753E-03               0.  -287.193601E-06
               87                4   1.20696658E-03   2.12116330E-03               0.  -143.154379E-06
               88                1   1.42177090E-03   3.09957773E-03               0.  -458.739349E-06
               88                2   1.13915105E-03   2.22363090E-03               0.  -555.290491E-06
               88                3   1.24228944E-03   2.85276864E-03               0.  -742.381148E-06
               88                4   970.252382E-06   2.04752130E-03               0.  -862.544228E-06
               89                1   1.32773176E-03   1.96766062E-03               0.  -189.050275E-06
               89                2   1.26577332E-03   1.71190745E-03               0.  -169.010193E-06
               89                3   1.40337436E-03   1.97292608E-03               0.  -260.961271E-06
               89                4   1.35121297E-03   1.73203379E-03               0.  -248.043420E-06
               90                1   1.26734038E-03   1.36563706E-03               0.  -304.230285E-06
               90                2   1.22058892E-03   1.35504978E-03               0.  -353.216165E-06
               90                3   1.33110117E-03   1.53284031E-03               0.  -269.493379E-06
               90                4   1.29024033E-03   1.53222028E-03               0.  -314.119767E-06
               91                1   993.338530E-06   853.549107E-06               0.  -405.473140E-06
               91                2   708.551670E-06   770.541723E-06               0.  -426.722370E-06
               91                3   1.11687812E-03   960.979902E-06               0.  -288.421958E-06
               91                4   840.783177E-06   887.414673E-06               0.  -298.591884E-06
               92                1   251.169578E-06   385.529362E-06               0.  -382.907194E-06
               92                2  -736.168644E-06   85.8772546E-06               0.  -332.618540E-06
               92                3   499.236747E-06   357.312878E-06               0.  -38.4776213E-06
               92                4  -574.645004E-06   19.2540429E-06               0.   58.1036038E-06
               93                1   943.431107E-06   1.88319408E-03               0.  -865.052454E-06
               93                2   722.400437E-06   1.89392362E-03               0.  -1.01019035E-03
               93                3   1.19769783E-03   2.44046841E-03               0.  -703.426776E-06
               93                4   1.02425960E-03   2.51627970E-03               0.  -817.944820E-06
               94                1   570.752600E-06   1.37893425E-03               0.  -1.03896682E-03
               94                2   359.688041E-06   1.38174370E-03               0.  -1.12279819E-03
               94                3   789.592450E-06   1.75477914E-03               0.  -893.325254E-06
               94                4   607.109629E-06   1.80373120E-03               0.  -958.591700E-06
               95                1   414.772716E-06   796.219218E-06               0.  -841.682253E-06
               95                2  -104.655737E-06   622.998283E-06               0.  -769.490493E-06
               95                3   640.090846E-06   788.853155E-06               0.  -655.659882E-06
               95                4   142.851903E-06   611.326017E-06               0.  -555.715931E-06
               96                1   1.25499244E-03   4.23607370E-03               0.   1.84015871E-03
               96                2   1.62932859E-03   3.82749061E-03               0.   1.97417312E-03
               96                3   791.191123E-06   3.51255969E-03               0.   1.54731516E-03
               96                4   1.13973848E-03   3.19476030E-03               0.   1.67855539E-03
               97                1   717.314833E-06   4.00357367E-03               0.   969.074317E-06
               97                2   581.116998E-06   3.62727605E-03               0.   1.16871612E-03
               97                3   616.798003E-06   3.63955810E-03               0.   902.831322E-06
               97                4   493.650674E-06   3.29525513E-03               0.   1.07328943E-03
               98                1   687.486550E-06   3.53085040E-03               0.   857.146631E-06
               98                2   422.185956E-06   3.29094823E-03               0.   993.752619E-06
               98                3   710.135850E-06   3.41253122E-03               0.   880.208507E-06
               98                4   485.691242E-06   3.18848644E-03               0.   1.00105279E-03
               99                1   514.683430E-06   2.79430323E-03               0.   1.15349749E-03
               99                2   657.137076E-06   2.99614365E-03               0.   1.25529035E-03
               99                3   540.421752E-06   2.53116922E-03               0.   1.20863563E-03
               99                4   666.699198E-06   2.66505731E-03               0.   1.30439270E-03
              100                1   945.305394E-06   2.00040336E-03               0.   1.41698611E-03
              100                2   1.19701354E-03   2.20921612E-03               0.   1.53913535E-03
              100                3   1.09719171E-03   1.81568612E-03               0.   1.37450104E-03
              100                4   1.37903669E-03   1.99980312E-03               0.   1.49269099E-03
              101                1   719.638600E-06   651.050999E-06               0.   587.488699E-06
              101                2   498.580106E-06   524.615753E-06               0.   766.068057E-06
              101                3   1.03958324E-03   732.118380E-06               0.   613.842742E-06
              101                4   841.337955E-06   618.900580E-06               0.   773.519743E-06
              102                1   179.266965E-06   52.4309580E-06               0.   14.3355392E-06
              102                2   11.3071892E-06   3.06384277E-06               0.   374.064402E-06
              102                3   1.03921734E-03   310.507283E-06               0.   46.8180042E-06
              102                4   807.573786E-06   241.964110E-06               0.   381.519378E-06
              103                1   1.16671110E-03   1.74995512E-03               0.   736.046873E-06
              103                2   811.329111E-06   1.00924261E-03               0.   962.414721E-06
              103                3   1.38031656E-03   1.67312659E-03               0.   595.780846E-06
              103                4   1.08095293E-03   1.01071910E-03               0.   786.156917E-06
              104                1   1.33260619E-03   625.797664E-06               0.   261.902169E-06
              104                2   1.17743714E-03   414.889539E-06               0.   412.818248E-06
              104                3   1.63746311E-03   707.076804E-06               0.   219.432521E-06
              104                4   1.49467459E-03   507.236167E-06               0.   362.700521E-06
              105                1   1.69129029E-03   629.631570E-06               0.   315.816491E-06
              105                2   1.92237145E-03   707.081635E-06               0.   200.772629E-06
              105                3   1.84319064E-03   977.887656E-06               0.   207.589517E-06
              105                4   2.06680712E-03   1.07116147E-03               0.   94.2526312E-06
              106                1   2.02726922E-03   712.856068E-06               0.   144.407139E-06
              106                2   2.12514470E-03   751.309330E-06               0.   32.5342953E-06
              106                3   2.12188624E-03   1.00116769E-03               0.   104.024497E-06
              106                4   2.22033355E-03   1.06008444E-03               0.  -3.04097512E-06
              107                1   1.15083135E-03   1.01698167E-03               0.   765.352102E-06
              107                2   1.54905859E-03   1.28637836E-03               0.   400.712510E-06
              107                3   1.50019233E-03   1.92237715E-03               0.   571.834913E-06
              107                4   1.89486460E-03   2.27082637E-03               0.   225.836993E-06
              108                1   1.64891453E-03   1.08011230E-03               0.   308.091985E-06
              108                2   1.89552235E-03   1.26118027E-03               0.   42.6597871E-06
              108                3   1.84183044E-03   1.67585898E-03               0.   229.013938E-06
              108                4   2.09049205E-03   1.89614273E-03               0.  -27.9531541E-06
              109                1   1.66222360E-03   2.18409486E-03               0.   8.26130963E-06
              109                2   1.88833359E-03   2.94764596E-03               0.  -27.3653859E-06
              109                3   1.44990114E-03   1.90357445E-03               0.   330.184179E-06
              109                4   1.65308721E-03   2.61422666E-03               0.   314.370234E-06
              110                1   1.32373348E-03   3.36460676E-03               0.   52.2008013E-06
              110                2   1.64925295E-03   4.46268031E-03               0.   26.1403493E-06
              110                3   1.08278985E-03   2.94127129E-03               0.   484.088290E-06
              110                4   1.38899731E-03   4.01161239E-03               0.   499.211019E-06
              111                1   487.614161E-06   5.03163505E-03               0.   229.247802E-06
              111                2   1.03573420E-03   6.84405118E-03               0.   300.275162E-06
              111                3   478.101836E-06   4.55805706E-03               0.   870.823802E-06
              111                4   1.08939630E-03   6.52819499E-03               0.   1.02443586E-03
              112                1   1.36195077E-03   2.48078280E-03               0.   421.792676E-06
              112                2   1.57230289E-03   3.37374560E-03               0.   359.423691E-06
              112                3   858.508691E-06   2.00880226E-03               0.   836.160732E-06
              112                4   992.973684E-06   2.77597457E-03               0.   827.552460E-06
              113                1   1.09291181E-03   3.71791981E-03               0.   531.217724E-06
              113                2   1.32067641E-03   4.52967966E-03               0.   576.092978E-06
              113                3   888.899667E-06   3.28630884E-03               0.   873.308338E-06
              113                4   1.08996662E-03   4.03908687E-03               0.   959.716446E-06
              114                1   633.090094E-06   4.67657484E-03               0.   1.13195309E-03
              114                2   1.17968023E-03   6.13144320E-03               0.   1.42477849E-03
              114                3   955.374097E-06   4.14798968E-03               0.   1.60254329E-03
              114                4   1.55771896E-03   5.55604557E-03               0.   1.96718890E-03
              115                1   1.38647272E-03   4.40649549E-03               0.   1.98862609E-03
              115                2   1.91421120E-03   3.87677946E-03               0.   2.14033294E-03
              115                3   892.758311E-06   3.61759891E-03               0.   1.67177711E-03
              115                4   1.35878567E-03   3.17419670E-03               0.   1.80906290E-03
              116                1   814.773375E-06   4.00283420E-03               0.   1.17725378E-03
              116                2   848.856231E-06   3.64059326E-03               0.   1.31579558E-03
              116                3   672.159716E-06   3.66417272E-03               0.   1.09065126E-03
              116                4   681.054953E-06   3.30786197E-03               0.   1.19641621E-03
              117                1   505.832722E-06   3.24121490E-03               0.   1.17512874E-03
              117                2   429.224019E-06   3.24004609E-03               0.   1.16187660E-03
              117                3   386.733853E-06   3.16946045E-03               0.   1.22750434E-03
              117                4   305.267517E-06   3.15841776E-03               0.   1.22363772E-03
              118                1   469.638035E-06   2.95073888E-03               0.   1.18137687E-03
              118                2   468.398939E-06   3.12329130E-03               0.   1.24097336E-03
              118                3   315.077254E-06   2.61677126E-03               0.   1.28975522E-03
              118                4   291.743898E-06   2.73545831E-03               0.   1.36279152E-03
              119                1   730.252883E-06   2.04198342E-03               0.   1.30207231E-03
              119                2   935.489079E-06   2.23845709E-03               0.   1.41044986E-03
              119                3   807.322096E-06   1.87049748E-03               0.   1.28106738E-03
              119                4   1.03582733E-03   2.04999326E-03               0.   1.39185740E-03
              120                1   142.474644E-06   621.354906E-06               0.   559.869804E-06
              120                2  -99.7990646E-06   637.090649E-06               0.   770.405459E-06
              120                3   636.950368E-06   799.493515E-06               0.   661.308179E-06
              120                4   418.078183E-06   811.002508E-06               0.   844.669994E-06
              121                1  -572.151854E-06   17.1163210E-06               0.  -56.6646486E-06
              121                2  -731.384964E-06   86.4944377E-06               0.   333.479256E-06
              121                3   495.771121E-06   354.171876E-06               0.   42.0954602E-06
              121                4   254.126644E-06   385.793450E-06               0.   384.866988E-06
              122                1   611.801224E-06   1.81047304E-03               0.   963.162805E-06
              122                2   362.032821E-06   1.37622119E-03               0.   1.12849660E-03
              122                3   789.632555E-06   1.75966730E-03               0.   895.404199E-06
              122                4   567.400304E-06   1.37289322E-03               0.   1.04256556E-03
              123                1   843.057467E-06   893.169432E-06               0.   299.212785E-06
              123                2   710.112799E-06   772.100175E-06               0.   428.114581E-06
              123                3   1.11960003E-03   966.793275E-06               0.   287.275354E-06
              123                4   992.668676E-06   854.459300E-06               0.   405.661587E-06
              124                1   1.02060940E-03   2.51072994E-03               0.   818.022003E-06
              124                2   718.143885E-06   1.89010531E-03               0.   1.01083505E-03
              124                3   1.19519548E-03   2.43548164E-03               0.   703.735277E-06
              124                4   941.161416E-06   1.87968404E-03               0.   865.436159E-06
              125                1   1.28804380E-03   1.52853446E-03               0.   313.520228E-06
              125                2   1.21809356E-03   1.35350099E-03               0.   353.453972E-06
              125                3   1.33056322E-03   1.52978837E-03               0.   269.540731E-06
              125                4   1.26664946E-03   1.36466417E-03               0.   305.054593E-06
              126                1   1.35119318E-03   1.73164986E-03               0.   248.200697E-06
              126                2   1.26629462E-03   1.71159825E-03               0.   169.414459E-06
              126                3   1.40258716E-03   1.97066669E-03               0.   260.496803E-06
              126                4   1.32754305E-03   1.96522451E-03               0.   188.939302E-06
              127                1   1.20752375E-03   2.12135352E-03               0.   143.174373E-06
              127                2   762.611569E-06   1.99247641E-03               0.   89.6210258E-06
              127                3   1.20809232E-03   2.26710411E-03               0.   287.066796E-06
              127                4   799.230707E-06   2.15902040E-03               0.   248.078228E-06
              128                1   969.614019E-06   2.04628799E-03               0.   862.842717E-06
              128                2   1.13874883E-03   2.22127815E-03               0.   555.163715E-06
              128                3   1.24123483E-03   2.85033276E-03               0.   743.009208E-06
              128                4   1.42110034E-03   3.09646246E-03               0.   458.773167E-06
              129                1   1.07884291E-03   2.38778861E-03               0.   599.962834E-06
              129                2   823.666109E-06   2.39630742E-03               0.   403.130311E-06
              129                3   1.21198909E-03   2.90167308E-03               0.   667.847460E-06
              129                4   982.520985E-06   2.94756773E-03               0.   488.277117E-06
              130                1   1.03788357E-03   3.35952011E-03               0.   575.281389E-06
              130                2   1.28145202E-03   4.16663568E-03               0.   607.814116E-06
              130                3   1.05676334E-03   3.15534393E-03               0.   893.513614E-06
              130                4   1.29688391E-03   3.93852452E-03               0.   940.392376E-06
              131                1   1.26310007E-03   4.80484683E-03               0.   623.962085E-06
              131                2   1.62629073E-03   6.05425704E-03               0.   459.560426E-06
              131                3   548.917043E-06   4.25834907E-03               0.   1.20380847E-03
              131                4   897.627207E-06   5.59517369E-03               0.   1.06439146E-03
              132                1   1.01607980E-03   3.28829652E-03               0.   796.980108E-06
              132                2   1.33516139E-03   4.36134357E-03               0.   849.713921E-06
              132                3   874.052988E-06   2.88312184E-03               0.   1.23038492E-03
              132                4   1.15174195E-03   3.82554880E-03               0.   1.33038592E-03
              133                1   557.305757E-06   4.59739845E-03               0.   1.39606523E-03
              133                2   1.04633742E-03   5.90044633E-03               0.   1.67501939E-03
              133                3   1.04347419E-03   4.14182106E-03               0.   1.85400597E-03
              133                4   1.59053947E-03   5.39342081E-03               0.   2.18732143E-03
              134                1   1.37880398E-03   2.00047763E-03               0.  -1.49199029E-03
              134                2   1.19661039E-03   2.20834208E-03               0.  -1.53863698E-03
              134                3   1.09736493E-03   1.81679125E-03               0.  -1.37413235E-03
              134                4   945.095671E-06   2.00009509E-03               0.  -1.41672185E-03
              135                1   667.382730E-06   2.66922382E-03               0.  -1.30289129E-03
              135                2   656.188466E-06   2.99590430E-03               0.  -1.25473225E-03
              135                3   541.005342E-06   2.53567658E-03               0.  -1.20778626E-03
              135                4   513.661886E-06   2.79506017E-03               0.  -1.15337037E-03
              136                1   484.520366E-06   3.18858563E-03               0.  -1.00076001E-03
              136                2   421.510777E-06   3.29442881E-03               0.  -994.099770E-06
              136                3   709.782995E-06   3.41491657E-03               0.  -879.004190E-06
              136                4   688.064494E-06   3.53608862E-03               0.  -856.322469E-06
              137                1   493.614411E-06   3.29873408E-03               0.  -1.07571704E-03
              137                2   579.816115E-06   3.62500944E-03               0.  -1.16980262E-03
              137                3   615.923316E-06   3.64132482E-03               0.  -904.333720E-06
              137                4   716.580369E-06   4.00509406E-03               0.  -970.574445E-06
              138                1   1.13142643E-03   3.18575115E-03               0.  -1.66934030E-03
              138                2   1.63061253E-03   3.82934278E-03               0.  -1.97044201E-03
              138                3   783.962780E-06   3.51148145E-03               0.  -1.54096528E-03
              138                4   1.25422282E-03   4.24135802E-03               0.  -1.83759013E-03
              139                1   1.55544735E-03   5.55156684E-03               0.  -1.96383707E-03
              139                2   1.18126604E-03   6.12147851E-03               0.  -1.42418919E-03
              139                3   950.980058E-06   4.14310861E-03               0.  -1.59673498E-03
              139                4   630.329130E-06   4.66180220E-03               0.  -1.12772093E-03
              140                1   1.09617948E-03   6.52752537E-03               0.  -1.02788315E-03
              140                2   1.03661814E-03   6.84086373E-03               0.  -300.588756E-06
              140                3   483.370532E-06   4.55686217E-03               0.  -869.061565E-06
              140                4   485.981727E-06   5.02114836E-03               0.  -226.949065E-06
              141                1   1.08550244E-03   4.03144816E-03               0.  -956.234173E-06
              141                2   1.31870143E-03   4.51941788E-03               0.  -572.404824E-06
              141                3   888.760376E-06   3.29224556E-03               0.  -873.452635E-06
              141                4   1.09639100E-03   3.72649613E-03               0.  -531.436992E-06
              142                1   1.38731860E-03   4.01050318E-03               0.  -499.445072E-06
              142                2   1.64829125E-03   4.45934152E-03               0.  -25.3158196E-06
              142                3   1.08035631E-03   2.93918233E-03               0.  -486.854668E-06
              142                4   1.32545654E-03   3.37083032E-03               0.  -52.1704133E-06
              143                1   992.645044E-06   2.78576487E-03               0.  -827.837328E-06
              143                2   1.57181162E-03   3.38654011E-03               0.  -359.542755E-06
              143                3   857.522129E-06   2.01665028E-03               0.  -836.301828E-06
              143                4   1.36015471E-03   2.48833210E-03               0.  -421.924837E-06
              144                1   1.65024912E-03   2.61441362E-03               0.  -313.840428E-06
              144                2   1.88938121E-03   2.95401178E-03               0.   27.6579467E-06
              144                3   1.44749170E-03   1.90460216E-03               0.  -330.314215E-06
              144                4   1.66328868E-03   2.19032820E-03               0.  -8.71948214E-06
              145                1   2.09155958E-03   1.90171518E-03               0.   28.4270209E-06
              145                2   1.89565471E-03   1.26357924E-03               0.  -42.7179148E-06
              145                3   1.84086920E-03   1.67762255E-03               0.  -229.197627E-06
              145                4   1.64760009E-03   1.08030241E-03               0.  -308.446906E-06
              146                1   2.22065183E-03   1.06161297E-03               0.   3.30100056E-06
              146                2   2.12511537E-03   751.675921E-06               0.  -32.4128596E-06
              146                3   2.12179543E-03   1.00211543E-03               0.  -104.055907E-06
              146                4   2.02695769E-03   713.002752E-06               0.  -144.510457E-06
              147                1   1.89419196E-03   2.27567577E-03               0.  -226.242657E-06
              147                2   1.54804951E-03   1.28835125E-03               0.  -400.754623E-06
              147                3   1.50058919E-03   1.92837918E-03               0.  -572.074961E-06
              147                4   1.15066092E-03   1.01977389E-03               0.  -765.511708E-06
              148                1   2.06634332E-03   1.07118790E-03               0.  -94.5278589E-06
              148                2   1.92209182E-03   707.072730E-06               0.  -200.904324E-06
              148                3   1.84318586E-03   978.217344E-06               0.  -207.710356E-06
              148                4   1.69137970E-03   629.781222E-06               0.  -315.861660E-06
              149                1   1.49492675E-03   507.503224E-06               0.  -362.759049E-06
              149                2   1.17785414E-03   415.231450E-06               0.  -412.997906E-06
              149                3   1.63766788E-03   707.801897E-06               0.  -219.485897E-06
              149                4   1.33306754E-03   626.687484E-06               0.  -262.027519E-06
              150                1   808.005745E-06   242.022885E-06               0.  -381.794089E-06
              150                2   11.9508204E-06   3.18132334E-06               0.  -374.232826E-06
              150                3   1.03923399E-03   310.223462E-06               0.  -47.2538450E-06
              150                4   179.755298E-06   52.2671107E-06               0.  -14.5463373E-06
              151                1   1.08029356E-03   1.01246324E-03               0.  -786.710647E-06
              151                2   812.443905E-06   1.01200165E-03               0.  -962.629681E-06
              151                3   1.37826032E-03   1.67355244E-03               0.  -597.418344E-06
              151                4   1.16664113E-03   1.75177050E-03               0.  -737.168419E-06
              152                1   841.971603E-06   620.193256E-06               0.  -774.055661E-06
              152                2   499.578426E-06   525.923795E-06               0.  -766.269513E-06
              152                3   1.03951106E-03   732.349348E-06               0.  -614.757882E-06
              152                4   720.004260E-06   651.229871E-06               0.  -588.073803E-06


********************************************************************************
Field Output Report, written Tue Jun 03 12:18:01 2025

Source 1
---------

   ODB: C:/lnms/Vid/VF/LinearnaPolja/PoljeU2/PoljeU2.odb
   Step: loading
   Frame: Increment      2: Step Time =   0.2000

Loc 1 : Integration point values from source 1

Output sorted by column "Element Label".

Field Output reported at integration points for part: SPECIMEN-1

          Element              Int            S.S11            S.S22            S.S33            S.S12
            Label               Pt           @Loc 1           @Loc 1           @Loc 1           @Loc 1
-------------------------------------------------------------------------------------------------------
                1                1   2.75251409E-03   4.01762174E-03               0.  -2.98232166E-03
                1                2   2.38250569E-03   4.43195086E-03               0.  -3.07488721E-03
                1                3   2.18721852E-03   3.64725874E-03               0.  -2.74514314E-03
                1                4   1.87776284E-03   4.01282683E-03               0.  -2.82975566E-03
                2                1   1.33021001E-03   5.33912051E-03               0.  -2.59469938E-03
                2                2   1.30689819E-03   5.98302763E-03               0.  -2.49833521E-03
                2                3   1.08038983E-03   5.07376250E-03               0.  -2.40669260E-03
                2                4   1.02530606E-03   5.58485556E-03               0.  -2.29815603E-03
                3                1   968.346547E-06   6.36543939E-03               0.  -1.99419330E-03
                3                2   846.422743E-06   6.57885987E-03               0.  -1.98179879E-03
                3                3   1.41399482E-03   6.81565609E-03               0.  -1.75251684E-03
                3                4   1.37336086E-03   7.05904933E-03               0.  -1.70820893E-03
                4                1   990.763423E-06   6.59223599E-03               0.  -2.14471668E-03
                4                2   1.16506836E-03   7.24220835E-03               0.  -2.33174115E-03
                4                3   1.22809922E-03   7.26787932E-03               0.  -1.80515472E-03
                4                4   1.43021520E-03   7.99124967E-03               0.  -1.93705107E-03
                5                1   2.24986207E-03   6.38413569E-03               0.  -3.33084888E-03
                5                2   3.24349012E-03   7.67163886E-03               0.  -3.93095706E-03
                5                3   1.55270402E-03   7.02859089E-03               0.  -3.07173864E-03
                5                4   2.48853443E-03   8.48690420E-03               0.  -3.66263022E-03
                6                1   3.07907211E-03   11.0905003E-03               0.  -3.90828541E-03
                6                2   2.33597495E-03   12.2128334E-03               0.  -2.83491635E-03
                6                3   1.88196881E-03   8.29154532E-03               0.  -3.18294577E-03
                6                4   1.24422298E-03   9.31474473E-03               0.  -2.24871654E-03
                7                1   2.16380507E-03   13.0157191E-03               0.  -2.04119296E-03
                7                2   2.04743072E-03   13.6343604E-03               0.  -599.898165E-06
                7                3   949.250942E-06   9.10710916E-03               0.  -1.72919780E-03
                7                4   955.829106E-06   10.0266403E-03               0.  -454.364519E-06
                8                1   2.16229632E-03   8.05574935E-03               0.  -1.91484531E-03
                8                2   2.61779199E-03   9.02151782E-03               0.  -1.15067139E-03
                8                3   1.76708552E-03   6.57977071E-03               0.  -1.74903602E-03
                8                4   2.17271550E-03   7.43998541E-03               0.  -1.06770743E-03
                9                1   2.74841022E-03   8.01635999E-03               0.  -1.00002554E-03
                9                2   3.26605281E-03   8.90863314E-03               0.  -55.0784789E-06
                9                3   2.13568704E-03   5.87910926E-03               0.  -975.181232E-06
                9                4   2.62221973E-03   6.73831301E-03               0.  -108.040949E-06
               10                1   1.97635847E-03   5.57119027E-03               0.  -1.65668654E-03
               10                2   3.12383426E-03   6.76242495E-03               0.  -724.520825E-06
               10                3   1.70423521E-03   4.03614528E-03               0.  -1.67341495E-03
               10                4   2.70003802E-03   4.97176358E-03               0.  -847.959425E-06
               11                1   3.27611319E-03   5.23032621E-03               0.  -630.376337E-06
               11                2   3.75146978E-03   5.90714533E-03               0.   51.7364970E-06
               11                3   2.87048356E-03   3.81128071E-03               0.  -663.173792E-06
               11                4   3.29952734E-03   4.38102614E-03               0.  -20.3854161E-06
               12                1   4.15813411E-03   3.80448648E-03               0.   54.3998904E-06
               12                2   3.76612064E-03   2.52760760E-03               0.  -87.0747026E-06
               12                3   3.65953916E-03   3.35759530E-03               0.  -460.762414E-06
               12                4   3.27275484E-03   2.16217409E-03               0.  -618.807331E-06
               13                1   4.41974634E-03   2.12279335E-03               0.   5.21298625E-06
               13                2   4.22730064E-03   1.49825448E-03               0.  -65.7491546E-06
               13                3   4.22335044E-03   2.00384622E-03               0.  -210.987535E-06
               13                4   4.03246563E-03   1.42129604E-03               0.  -291.638600E-06
               14                1   3.76668037E-03   4.54706186E-03               0.  -457.478978E-06
               14                2   3.07600782E-03   2.57730996E-03               0.  -805.034011E-06
               14                3   2.98498478E-03   3.85735068E-03               0.  -1.14698242E-03
               14                4   2.28655618E-03   2.04438157E-03               0.  -1.53296010E-03
               15                1   4.11368674E-03   2.14151386E-03               0.  -194.301203E-06
               15                2   3.82456579E-03   1.40986056E-03               0.  -405.866129E-06
               15                3   3.67093435E-03   1.95666403E-03               0.  -421.536504E-06
               15                4   3.36688221E-03   1.25656475E-03               0.  -636.893034E-06
               16                1   2.97682802E-03   1.01297535E-03               0.  -731.715001E-06
               16                2   2.34772614E-03   830.182689E-06               0.  -833.240978E-06
               16                3   3.26242764E-03   1.41690322E-03               0.  -446.871243E-06
               16                4   2.65831291E-03   1.25662296E-03               0.  -532.974082E-06
               17                1   1.61144068E-03   483.767188E-06               0.  -771.205174E-06
               17                2   23.0642981E-06   7.21786228E-06               0.  -755.901856E-06
               17                3   2.07462907E-03   620.718056E-06               0.  -104.121937E-06
               17                4   360.200327E-06   106.153115E-06               0.  -38.0978126E-06
               18                1   2.14786595E-03   2.02969601E-03               0.  -1.57591235E-03
               18                2   1.61474501E-03   2.03113956E-03               0.  -1.92655483E-03
               18                3   2.74305209E-03   3.34821129E-03               0.  -1.19791029E-03
               18                4   2.32241466E-03   3.50636640E-03               0.  -1.47611974E-03
               19                1   1.68135669E-03   1.24873256E-03               0.  -1.55177491E-03
               19                2   1.00745738E-03   1.06393930E-03               0.  -1.53672427E-03
               19                3   2.07376550E-03   1.47356756E-03               0.  -1.23777601E-03
               19                4   1.44550891E-03   1.31516927E-03               0.  -1.18538679E-03
               20                1   2.08492158E-03   4.10627108E-03               0.  -2.78231199E-03
               20                2   1.87542255E-03   4.50805249E-03               0.  -2.81916419E-03
               20                3   1.60672073E-03   3.72736505E-03               0.  -2.54883291E-03
               20                4   1.44924200E-03   4.09543654E-03               0.  -2.59273476E-03
               21                1   592.749566E-06   5.47211803E-03               0.  -2.71676527E-03
               21                2   942.816201E-06   6.24463521E-03               0.  -2.47559673E-03
               21                3   637.186749E-06   5.23283426E-03               0.  -2.57116463E-03
               21                4   943.573075E-06   5.89337293E-03               0.  -2.35472387E-03
               22                1   609.647657E-06   6.31917687E-03               0.  -2.43105437E-03
               22                2   858.139538E-06   6.46496424E-03               0.  -2.31162901E-03
               22                3   776.398985E-06   6.34744810E-03               0.  -2.44358531E-03
               22                4   1.01510494E-03   6.47695642E-03               0.  -2.34291074E-03
               23                1   1.36393367E-03   6.61135046E-03               0.  -2.38889782E-03
               23                2   1.69845787E-03   7.27530615E-03               0.  -2.62625702E-03
               23                3   1.34246703E-03   7.31768459E-03               0.  -2.17635883E-03
               23                4   1.62666722E-03   7.99392257E-03               0.  -2.34839576E-03
               24                1   2.70175608E-03   6.36308128E-03               0.  -3.61197884E-03
               24                2   3.79983312E-03   7.76009588E-03               0.  -4.26811399E-03
               24                3   1.77257706E-03   7.23732589E-03               0.  -3.33455531E-03
               24                4   2.74876575E-03   8.80539417E-03               0.  -3.96196358E-03
               25                1   3.14746820E-03   10.7723493E-03               0.  -4.35388694E-03
               25                2   2.06955057E-03   11.7738759E-03               0.  -3.33561655E-03
               25                3   2.06563063E-03   8.28702375E-03               0.  -3.69602256E-03
               25                4   1.10164785E-03   9.18882247E-03               0.  -2.78443773E-03
               26                1   1.78006070E-03   11.1723552E-03               0.  -2.10646586E-03
               26                2   3.24535533E-03   12.0898513E-03               0.  -902.331900E-06
               26                3   1.08569406E-03   8.50905478E-03               0.  -2.38997489E-03
               26                4   2.52280361E-03   9.60303191E-03               0.  -1.23327575E-03
               27                1   2.28932011E-03   7.65472325E-03               0.  -2.65604747E-03
               27                2   2.65707797E-03   8.72256514E-03               0.  -1.69659778E-03
               27                3   1.73434149E-03   5.76966256E-03               0.  -2.45963736E-03
               27                4   2.02012178E-03   6.58026850E-03               0.  -1.59334939E-03
               28                1   2.57790345E-03   7.87274074E-03               0.  -1.86648383E-03
               28                2   2.55915243E-03   8.33171979E-03               0.  -1.20312104E-03
               28                3   2.09982204E-03   6.31102314E-03               0.  -1.77664706E-03
               28                4   2.07374664E-03   6.72277994E-03               0.  -1.14134327E-03
               29                1   1.96434837E-03   5.90143492E-03               0.  -969.393644E-06
               29                2   1.64683757E-03   4.80053248E-03               0.  -801.603543E-06
               29                3   2.41453759E-03   5.80679765E-03               0.  -1.32774981E-03
               29                4   2.14815489E-03   4.78016399E-03               0.  -1.19462190E-03
               30                1   1.59920391E-03   4.32683202E-03               0.  -493.184431E-06
               30                2   1.52534782E-03   3.99382785E-03               0.  -178.268514E-06
               30                3   2.41055223E-03   4.54092072E-03               0.  -570.911507E-06
               30                4   2.40756664E-03   4.24927520E-03               0.  -285.115879E-06
               31                1   2.83160410E-03   6.20032102E-03               0.  -916.745164E-06
               31                2   2.26832740E-03   4.45412891E-03               0.  -1.10898342E-03
               31                3   2.47544516E-03   5.70991402E-03               0.  -1.48202246E-03
               31                4   1.93314545E-03   4.10456397E-03               0.  -1.72179914E-03
               32                1   2.64712307E-03   3.94411292E-03               0.  -377.203076E-06
               32                2   2.52366695E-03   3.43440706E-03               0.  -337.300677E-06
               32                3   2.79785646E-03   3.95466853E-03               0.  -520.519039E-06
               32                4   2.69393669E-03   3.47461132E-03               0.  -494.850450E-06
               33                1   2.52639432E-03   2.74164719E-03               0.  -607.684080E-06
               33                2   2.43564323E-03   2.72138719E-03               0.  -705.303450E-06
               33                3   2.65272800E-03   3.07455123E-03               0.  -539.387634E-06
               33                4   2.57356954E-03   3.07409838E-03               0.  -628.356123E-06
               34                1   1.98287540E-03   1.71554345E-03               0.  -810.904254E-06
               34                2   1.42017449E-03   1.55166711E-03               0.  -853.294623E-06
               34                3   2.22784374E-03   1.92949129E-03               0.  -579.476473E-06
               34                4   1.68248883E-03   1.78447110E-03               0.  -599.904277E-06
               35                1   508.953060E-06   774.395594E-06               0.  -766.906771E-06
               35                2  -1.45623763E-03   177.776863E-06               0.  -665.854139E-06
               35                3   1.00399472E-03   717.172981E-06               0.  -82.1931972E-06
               35                4  -1.13288406E-03   43.8806746E-06               0.   111.781061E-06
               36                1   1.87904015E-03   3.77487717E-03               0.  -1.72886648E-03
               36                2   1.43975520E-03   3.79728642E-03               0.  -2.01662444E-03
               36                3   2.38470035E-03   4.88082319E-03               0.  -1.40729186E-03
               36                4   2.04025698E-03   5.03226835E-03               0.  -1.63403200E-03
               37                1   1.13709667E-03   2.76906672E-03               0.  -2.07591825E-03
               37                2   716.107839E-06   2.77566770E-03               0.  -2.24238611E-03
               37                3   1.57444726E-03   3.51756578E-03               0.  -1.78507459E-03
               37                4   1.21073658E-03   3.61604476E-03               0.  -1.91438093E-03
               38                1   831.640209E-06   1.60350848E-03               0.  -1.68566580E-03
               38                2  -195.671571E-06   1.26043148E-03               0.  -1.54168683E-03
               38                3   1.28079532E-03   1.58975169E-03               0.  -1.31843449E-03
               38                4   298.147468E-06   1.23821630E-03               0.  -1.11946580E-03
               39                1   2.74969428E-03   8.80504772E-03               0.   3.96259688E-03
               39                2   3.80141172E-03   7.75948167E-03               0.   4.26829094E-03
               39                3   1.77161838E-03   7.23600667E-03               0.   3.33418464E-03
               39                4   2.70103593E-03   6.36027055E-03               0.   3.61090596E-03
               40                1   1.62395136E-03   7.99034908E-03               0.   2.34996923E-03
               40                2   1.69806590E-03   7.27393012E-03               0.   2.62541091E-03
               40                3   1.33900729E-03   7.31538469E-03               0.   2.17704219E-03
               40                4   1.36194192E-03   6.60970062E-03               0.   2.38726288E-03
               41                1   1.01348350E-03   6.47641299E-03               0.   2.34260829E-03
               41                2   858.053158E-06   6.47079945E-03               0.   2.31410284E-03
               41                3   774.022774E-06   6.33722870E-03               0.   2.44635809E-03
               41                4   609.018607E-06   6.31297845E-03               0.   2.43679597E-03
               42                1   938.042533E-06   5.89887472E-03               0.   2.35239416E-03
               42                2   934.048090E-06   6.24088431E-03               0.   2.46903184E-03
               42                3   629.893737E-06   5.23879007E-03               0.   2.56844587E-03
               42                4   581.874570E-06   5.47442865E-03               0.   2.71197921E-03
               43                1   1.45272829E-03   4.10016673E-03               0.   2.60170479E-03
               43                2   1.86669722E-03   4.49701166E-03               0.   2.82035628E-03
               43                3   1.61147479E-03   3.75726959E-03               0.   2.55967584E-03
               43                4   2.07284954E-03   4.12049051E-03               0.   2.78327614E-03
               44                1   297.298975E-06   1.25826441E-03               0.   1.12766691E-03
               44                2  -186.076737E-06   1.28857151E-03               0.   1.54346367E-03
               44                3   1.27445243E-03   1.61102903E-03               0.   1.32958370E-03
               44                4   838.121108E-06   1.63302664E-03               0.   1.69154420E-03
               45                1  -1.12790824E-03   39.6808173E-06               0.  -108.870190E-06
               45                2  -1.44670147E-03   179.023133E-06               0.   667.589193E-06
               45                3   997.038675E-06   710.962398E-06               0.   89.4126570E-06
               45                4   514.784711E-06   774.921791E-06               0.   770.815997E-06
               46                1   1.22003979E-03   3.62952868E-03               0.   1.92344829E-03
               46                2   720.693730E-06   2.76470277E-03               0.   2.25376454E-03
               46                3   1.57454808E-03   3.52735119E-03               0.   1.78917346E-03
               46                4   1.13039883E-03   2.75706965E-03               0.   2.08309782E-03
               47                1   1.68702076E-03   1.79597305E-03               0.   601.141655E-06
               47                2   1.42326090E-03   1.55478111E-03               0.   856.072176E-06
               47                3   2.23327009E-03   1.94110465E-03               0.   577.196479E-06
               47                4   1.98156503E-03   1.71737652E-03               0.   811.280683E-06
               48                1   2.03300873E-03   5.02120005E-03               0.   1.63418090E-03
               48                2   1.43129204E-03   3.78965889E-03               0.   2.01790105E-03
               48                3   2.37973919E-03   4.87087341E-03               0.   1.40790385E-03
               48                4   1.87453395E-03   3.76786012E-03               0.   1.72963052E-03
               49                1   2.56918813E-03   3.06672091E-03               0.   627.158151E-06
               49                2   2.43069069E-03   2.71829683E-03               0.   705.770042E-06
               49                3   2.65164883E-03   3.06843896E-03               0.   539.485016E-06
               49                4   2.52503157E-03   2.73970445E-03               0.   609.326700E-06
               50                1   2.69391155E-03   3.47384601E-03               0.   495.161745E-06
               50                2   2.52470258E-03   3.43378587E-03               0.   338.107609E-06
               50                3   2.79629533E-03   3.95015534E-03               0.   519.599242E-06
               50                4   2.64673773E-03   3.93924164E-03               0.   376.990851E-06
               51                1   2.40867399E-03   4.24965471E-03               0.   285.156246E-06
               51                2   1.52554445E-03   3.99389444E-03               0.   178.210888E-06
               51                3   2.41037970E-03   4.54063807E-03               0.   570.659933E-06
               51                4   1.59891450E-03   4.32633189E-03               0.   492.804509E-06
               52                1   1.93188014E-03   4.10210574E-03               0.   1.72239984E-03
               52                2   2.26752623E-03   4.44942946E-03               0.   1.10873987E-03
               52                3   2.47334898E-03   5.70505019E-03               0.   1.48328068E-03
               52                4   2.83026719E-03   6.19409326E-03               0.   916.822231E-06
               53                1   2.14971020E-03   4.78046667E-03               0.   1.19432027E-03
               53                2   1.64703431E-03   4.79963468E-03               0.   801.103946E-06
               53                3   2.41599372E-03   5.80613082E-03               0.   1.32778741E-03
               53                4   1.96438655E-03   5.89982886E-03               0.   969.144690E-06
               54                1   2.07342138E-03   6.72102254E-03               0.   1.14125526E-03
               54                2   2.55887560E-03   8.33004061E-03               0.   1.20325387E-03
               54                3   2.10028328E-03   6.31021382E-03               0.   1.77685288E-03
               54                4   2.57836422E-03   7.87164271E-03               0.   1.86707405E-03
               55                1   2.52247998E-03   9.60154552E-03               0.   1.23336865E-03
               55                2   3.24497675E-03   12.0885661E-03               0.   902.719446E-06
               55                3   1.08639745E-03   8.50861985E-03               0.   2.38982961E-03
               55                4   1.78008596E-03   11.1712394E-03               0.   2.10712524E-03
               56                1   2.01888033E-03   6.57627545E-03               0.   1.59212458E-03
               56                2   2.65542511E-03   8.71654041E-03               0.   1.69676030E-03
               56                3   1.73636677E-03   5.77066652E-03               0.   2.45732046E-03
               56                4   2.29051546E-03   7.65177514E-03               0.   2.65558925E-03
               57                1   1.10100955E-03   9.18594003E-03               0.   2.78327451E-03
               57                2   2.06991308E-03   11.7710615E-03               0.   3.33543005E-03
               57                3   2.06570723E-03   8.28593969E-03               0.   3.69441044E-03
               57                4   3.14859068E-03   10.7705202E-03               0.   4.35327599E-03
               58                1   2.48997100E-03   8.47651716E-03               0.   3.66772409E-03
               58                2   3.24091269E-03   7.66809145E-03               0.   3.93834338E-03
               58                3   1.56693882E-03   7.03086238E-03               0.   3.08433920E-03
               58                4   2.26630690E-03   6.40225643E-03               0.   3.34913656E-03
               59                1   1.43167714E-03   7.98832253E-03               0.   1.93414895E-03
               59                2   1.16777315E-03   7.24675087E-03               0.   2.32967664E-03
               59                3   1.22975558E-03   7.26435613E-03               0.   1.80219812E-03
               59                4   990.810571E-06   6.58523710E-03               0.   2.13993154E-03
               60                1   1.37221196E-03   7.04865670E-03               0.   1.70984119E-03
               60                2   847.712217E-06   6.57189731E-03               0.   1.98109029E-03
               60                3   1.41470088E-03   6.81094173E-03               0.   1.75490277E-03
               60                4   970.650581E-06   6.36523077E-03               0.   1.99475908E-03
               61                1   1.02732796E-03   5.58333192E-03               0.   2.29840539E-03
               61                2   1.30878261E-03   5.98350307E-03               0.   2.49944138E-03
               61                3   1.07922440E-03   5.06479573E-03               0.   2.40839156E-03
               61                4   1.32885145E-03   5.33085456E-03               0.   2.59769615E-03
               62                1   1.87818240E-03   4.01344290E-03               0.   2.83028465E-03
               62                2   2.38329917E-03   4.43368731E-03               0.   3.07587441E-03
               62                3   2.18687300E-03   3.64507129E-03               0.   2.74588331E-03
               62                4   2.75297114E-03   4.01629182E-03               0.   2.98371748E-03
               63                1   1.44479226E-03   1.31480559E-03               0.   1.18422473E-03
               63                2   1.00548135E-03   1.06132997E-03               0.   1.53632544E-03
               63                3   2.07391544E-03   1.47309690E-03               0.   1.23596075E-03
               63                4   1.68010476E-03   1.24615093E-03               0.   1.55071332E-03
               64                1   359.224010E-06   106.472333E-06               0.   37.6777352E-06
               64                2   21.7793786E-06   6.98101258E-06               0.   755.567686E-06
               64                3   2.07459787E-03   621.277781E-06               0.   103.254977E-06
               64                4   1.61058141E-03   483.648386E-06               0.   770.660292E-06
               65                1   2.32256320E-03   3.50273307E-03               0.   1.47389597E-03
               65                2   1.61252834E-03   2.02563498E-03               0.   1.92613655E-03
               65                3   2.74715712E-03   3.34734563E-03               0.   1.19466160E-03
               65                4   2.14918586E-03   2.02621426E-03               0.   1.57482212E-03
               66                1   2.65739555E-03   1.25484599E-03               0.   532.726001E-06
               66                2   2.34689843E-03   829.500146E-06               0.   832.885911E-06
               66                3   3.26202298E-03   1.41545711E-03               0.   446.766353E-06
               66                4   2.97633023E-03   1.01244345E-03               0.   731.601263E-06
               67                1   3.36670945E-03   1.25626440E-03               0.   636.805897E-06
               67                2   3.82513017E-03   1.40987756E-03               0.   405.606552E-06
               67                3   3.67094669E-03   1.95599766E-03               0.   421.296427E-06
               67                4   4.11461480E-03   2.14145449E-03               0.   193.753192E-06
               68                1   4.03309241E-03   1.42100547E-03               0.   291.434611E-06
               68                2   4.22735931E-03   1.49752165E-03               0.   65.9917714E-06
               68                3   4.22353530E-03   2.00195657E-03               0.   210.927101E-06
               68                4   4.41910978E-03   2.11973581E-03               0.  -4.69342422E-06
               69                1   2.28690146E-03   2.03880039E-03               0.   1.53265230E-03
               69                2   3.07803275E-03   2.57337093E-03               0.   804.956246E-06
               69                3   2.98419944E-03   3.84537783E-03               0.   1.14651304E-03
               69                4   3.76803265E-03   4.53739613E-03               0.   456.673530E-06
               70                1   3.27539211E-03   2.16179597E-03               0.   618.100865E-06
               70                2   3.76585429E-03   2.52280757E-03               0.   86.9564974E-06
               70                3   3.66146723E-03   3.35407397E-03               0.   460.399635E-06
               70                4   4.15599858E-03   3.79334856E-03               0.  -53.4553947E-06
               71                1   3.29740345E-03   4.36856784E-03               0.   19.4688128E-06
               71                2   3.74938059E-03   5.89442765E-03               0.  -51.1491271E-06
               71                3   2.87532317E-03   3.80923762E-03               0.   662.915874E-06
               71                4   3.28180683E-03   5.22995973E-03               0.   631.439907E-06
               72                1   2.61877105E-03   6.72588544E-03               0.   108.093220E-06
               72                2   3.26796621E-03   8.91528931E-03               0.   56.7045063E-06
               72                3   2.14047986E-03   5.88323828E-03               0.   969.666464E-06
               72                4   2.75170384E-03   8.01855512E-03               0.   999.550684E-06
               73                1   959.084195E-06   10.0475168E-03               0.   458.913652E-06
               73                2   2.04566610E-03   13.6406552E-03               0.   599.265913E-06
               73                3   938.807614E-06   9.10956133E-03               0.   1.73264788E-03
               73                4   2.15035514E-03   13.0170174E-03               0.   2.03431188E-03
               74                1   2.70363153E-03   4.95671621E-03               0.   847.695279E-06
               74                2   3.12480633E-03   6.73690345E-03               0.   724.268146E-06
               74                3   1.70618203E-03   4.02049534E-03               0.   1.67312822E-03
               74                4   1.97697734E-03   5.55164833E-03               0.   1.65610306E-03
               75                1   2.16577318E-03   7.42289983E-03               0.   1.06721174E-03
               75                2   2.62178271E-03   9.04201809E-03               0.   1.15796016E-03
               75                3   1.76726817E-03   6.56792242E-03               0.   1.74871366E-03
               75                4   2.17113271E-03   8.07100534E-03               0.   1.92173454E-03
               76                1   1.24961860E-03   9.34424717E-03               0.   2.25710589E-03
               76                2   2.33268063E-03   12.2326026E-03               0.   2.83604581E-03
               76                3   1.89055409E-03   8.30148160E-03               0.   3.19446344E-03
               76                4   3.08337109E-03   11.0994652E-03               0.   3.91487405E-03
               77                1   2.08492158E-03   4.10627108E-03               0.  -2.78231199E-03
               77                2   1.87542255E-03   4.50805249E-03               0.  -2.81916419E-03
               77                3   1.60672073E-03   3.72736505E-03               0.  -2.54883291E-03
               77                4   1.44924200E-03   4.09543654E-03               0.  -2.59273476E-03
               78                1   592.749566E-06   5.47211803E-03               0.  -2.71676527E-03
               78                2   942.816201E-06   6.24463521E-03               0.  -2.47559673E-03
               78                3   637.186749E-06   5.23283426E-03               0.  -2.57116463E-03
               78                4   943.573075E-06   5.89337293E-03               0.  -2.35472387E-03
               79                1   609.647657E-06   6.31917687E-03               0.  -2.43105437E-03
               79                2   858.139538E-06   6.46496424E-03               0.  -2.31162901E-03
               79                3   776.398985E-06   6.34744810E-03               0.  -2.44358531E-03
               79                4   1.01510494E-03   6.47695642E-03               0.  -2.34291074E-03
               80                1   1.36393367E-03   6.61135046E-03               0.  -2.38889782E-03
               80                2   1.69845787E-03   7.27530615E-03               0.  -2.62625702E-03
               80                3   1.34246703E-03   7.31768459E-03               0.  -2.17635883E-03
               80                4   1.62666722E-03   7.99392257E-03               0.  -2.34839576E-03
               81                1   2.70175608E-03   6.36308128E-03               0.  -3.61197884E-03
               81                2   3.79983312E-03   7.76009588E-03               0.  -4.26811399E-03
               81                3   1.77257706E-03   7.23732589E-03               0.  -3.33455531E-03
               81                4   2.74876575E-03   8.80539417E-03               0.  -3.96196358E-03
               82                1   3.14746820E-03   10.7723493E-03               0.  -4.35388694E-03
               82                2   2.06955057E-03   11.7738759E-03               0.  -3.33561655E-03
               82                3   2.06563063E-03   8.28702375E-03               0.  -3.69602256E-03
               82                4   1.10164785E-03   9.18882247E-03               0.  -2.78443773E-03
               83                1   1.78006070E-03   11.1723552E-03               0.  -2.10646586E-03
               83                2   3.24535533E-03   12.0898513E-03               0.  -902.331900E-06
               83                3   1.08569406E-03   8.50905478E-03               0.  -2.38997489E-03
               83                4   2.52280361E-03   9.60303191E-03               0.  -1.23327575E-03
               84                1   2.28932011E-03   7.65472325E-03               0.  -2.65604747E-03
               84                2   2.65707797E-03   8.72256514E-03               0.  -1.69659778E-03
               84                3   1.73434149E-03   5.76966256E-03               0.  -2.45963736E-03
               84                4   2.02012178E-03   6.58026850E-03               0.  -1.59334939E-03
               85                1   2.57790345E-03   7.87274074E-03               0.  -1.86648383E-03
               85                2   2.55915243E-03   8.33171979E-03               0.  -1.20312104E-03
               85                3   2.09982204E-03   6.31102314E-03               0.  -1.77664706E-03
               85                4   2.07374664E-03   6.72277994E-03               0.  -1.14134327E-03
               86                1   1.96434837E-03   5.90143492E-03               0.  -969.393644E-06
               86                2   1.64683757E-03   4.80053248E-03               0.  -801.603543E-06
               86                3   2.41453759E-03   5.80679765E-03               0.  -1.32774981E-03
               86                4   2.14815489E-03   4.78016399E-03               0.  -1.19462190E-03
               87                1   1.59920391E-03   4.32683202E-03               0.  -493.184431E-06
               87                2   1.52534782E-03   3.99382785E-03               0.  -178.268514E-06
               87                3   2.41055223E-03   4.54092072E-03               0.  -570.911507E-06
               87                4   2.40756664E-03   4.24927520E-03               0.  -285.115879E-06
               88                1   2.83160410E-03   6.20032102E-03               0.  -916.745164E-06
               88                2   2.26832740E-03   4.45412891E-03               0.  -1.10898342E-03
               88                3   2.47544516E-03   5.70991402E-03               0.  -1.48202246E-03
               88                4   1.93314545E-03   4.10456397E-03               0.  -1.72179914E-03
               89                1   2.64712307E-03   3.94411292E-03               0.  -377.203076E-06
               89                2   2.52366695E-03   3.43440706E-03               0.  -337.300677E-06
               89                3   2.79785646E-03   3.95466853E-03               0.  -520.519039E-06
               89                4   2.69393669E-03   3.47461132E-03               0.  -494.850450E-06
               90                1   2.52639432E-03   2.74164719E-03               0.  -607.684080E-06
               90                2   2.43564323E-03   2.72138719E-03               0.  -705.303450E-06
               90                3   2.65272800E-03   3.07455123E-03               0.  -539.387634E-06
               90                4   2.57356954E-03   3.07409838E-03               0.  -628.356123E-06
               91                1   1.98287540E-03   1.71554345E-03               0.  -810.904254E-06
               91                2   1.42017449E-03   1.55166711E-03               0.  -853.294623E-06
               91                3   2.22784374E-03   1.92949129E-03               0.  -579.476473E-06
               91                4   1.68248883E-03   1.78447110E-03               0.  -599.904277E-06
               92                1   508.953060E-06   774.395594E-06               0.  -766.906771E-06
               92                2  -1.45623763E-03   177.776863E-06               0.  -665.854139E-06
               92                3   1.00399472E-03   717.172981E-06               0.  -82.1931972E-06
               92                4  -1.13288406E-03   43.8806746E-06               0.   111.781061E-06
               93                1   1.87904015E-03   3.77487717E-03               0.  -1.72886648E-03
               93                2   1.43975520E-03   3.79728642E-03               0.  -2.01662444E-03
               93                3   2.38470035E-03   4.88082319E-03               0.  -1.40729186E-03
               93                4   2.04025698E-03   5.03226835E-03               0.  -1.63403200E-03
               94                1   1.13709667E-03   2.76906672E-03               0.  -2.07591825E-03
               94                2   716.107839E-06   2.77566770E-03               0.  -2.24238611E-03
               94                3   1.57444726E-03   3.51756578E-03               0.  -1.78507459E-03
               94                4   1.21073658E-03   3.61604476E-03               0.  -1.91438093E-03
               95                1   831.640209E-06   1.60350848E-03               0.  -1.68566580E-03
               95                2  -195.671571E-06   1.26043148E-03               0.  -1.54168683E-03
               95                3   1.28079532E-03   1.58975169E-03               0.  -1.31843449E-03
               95                4   298.147468E-06   1.23821630E-03               0.  -1.11946580E-03
               96                1   2.48997100E-03   8.47651716E-03               0.   3.66772409E-03
               96                2   3.24091269E-03   7.66809145E-03               0.   3.93834338E-03
               96                3   1.56693882E-03   7.03086238E-03               0.   3.08433920E-03
               96                4   2.26630690E-03   6.40225643E-03               0.   3.34913656E-03
               97                1   1.43167714E-03   7.98832253E-03               0.   1.93414895E-03
               97                2   1.16777315E-03   7.24675087E-03               0.   2.32967664E-03
               97                3   1.22975558E-03   7.26435613E-03               0.   1.80219812E-03
               97                4   990.810571E-06   6.58523710E-03               0.   2.13993154E-03
               98                1   1.37221196E-03   7.04865670E-03               0.   1.70984119E-03
               98                2   847.712217E-06   6.57189731E-03               0.   1.98109029E-03
               98                3   1.41470088E-03   6.81094173E-03               0.   1.75490277E-03
               98                4   970.650581E-06   6.36523077E-03               0.   1.99475908E-03
               99                1   1.02732796E-03   5.58333192E-03               0.   2.29840539E-03
               99                2   1.30878261E-03   5.98350307E-03               0.   2.49944138E-03
               99                3   1.07922440E-03   5.06479573E-03               0.   2.40839156E-03
               99                4   1.32885145E-03   5.33085456E-03               0.   2.59769615E-03
              100                1   1.87818240E-03   4.01344290E-03               0.   2.83028465E-03
              100                2   2.38329917E-03   4.43368731E-03               0.   3.07587441E-03
              100                3   2.18687300E-03   3.64507129E-03               0.   2.74588331E-03
              100                4   2.75297114E-03   4.01629182E-03               0.   2.98371748E-03
              101                1   1.44479226E-03   1.31480559E-03               0.   1.18422473E-03
              101                2   1.00548135E-03   1.06132997E-03               0.   1.53632544E-03
              101                3   2.07391544E-03   1.47309690E-03               0.   1.23596075E-03
              101                4   1.68010476E-03   1.24615093E-03               0.   1.55071332E-03
              102                1   359.224010E-06   106.472333E-06               0.   37.6777352E-06
              102                2   21.7793786E-06   6.98101258E-06               0.   755.567686E-06
              102                3   2.07459787E-03   621.277781E-06               0.   103.254977E-06
              102                4   1.61058141E-03   483.648386E-06               0.   770.660292E-06
              103                1   2.32256320E-03   3.50273307E-03               0.   1.47389597E-03
              103                2   1.61252834E-03   2.02563498E-03               0.   1.92613655E-03
              103                3   2.74715712E-03   3.34734563E-03               0.   1.19466160E-03
              103                4   2.14918586E-03   2.02621426E-03               0.   1.57482212E-03
              104                1   2.65739555E-03   1.25484599E-03               0.   532.726001E-06
              104                2   2.34689843E-03   829.500146E-06               0.   832.885911E-06
              104                3   3.26202298E-03   1.41545711E-03               0.   446.766353E-06
              104                4   2.97633023E-03   1.01244345E-03               0.   731.601263E-06
              105                1   3.36670945E-03   1.25626440E-03               0.   636.805897E-06
              105                2   3.82513017E-03   1.40987756E-03               0.   405.606552E-06
              105                3   3.67094669E-03   1.95599766E-03               0.   421.296427E-06
              105                4   4.11461480E-03   2.14145449E-03               0.   193.753192E-06
              106                1   4.03309241E-03   1.42100547E-03               0.   291.434611E-06
              106                2   4.22735931E-03   1.49752165E-03               0.   65.9917714E-06
              106                3   4.22353530E-03   2.00195657E-03               0.   210.927101E-06
              106                4   4.41910978E-03   2.11973581E-03               0.  -4.69342422E-06
              107                1   2.28690146E-03   2.03880039E-03               0.   1.53265230E-03
              107                2   3.07803275E-03   2.57337093E-03               0.   804.956246E-06
              107                3   2.98419944E-03   3.84537783E-03               0.   1.14651304E-03
              107                4   3.76803265E-03   4.53739613E-03               0.   456.673530E-06
              108                1   3.27539211E-03   2.16179597E-03               0.   618.100865E-06
              108                2   3.76585429E-03   2.52280757E-03               0.   86.9564974E-06
              108                3   3.66146723E-03   3.35407397E-03               0.   460.399635E-06
              108                4   4.15599858E-03   3.79334856E-03               0.  -53.4553947E-06
              109                1   3.29740345E-03   4.36856784E-03               0.   19.4688128E-06
              109                2   3.74938059E-03   5.89442765E-03               0.  -51.1491271E-06
              109                3   2.87532317E-03   3.80923762E-03               0.   662.915874E-06
              109                4   3.28180683E-03   5.22995973E-03               0.   631.439907E-06
              110                1   2.61877105E-03   6.72588544E-03               0.   108.093220E-06
              110                2   3.26796621E-03   8.91528931E-03               0.   56.7045063E-06
              110                3   2.14047986E-03   5.88323828E-03               0.   969.666464E-06
              110                4   2.75170384E-03   8.01855512E-03               0.   999.550684E-06
              111                1   959.084195E-06   10.0475168E-03               0.   458.913652E-06
              111                2   2.04566610E-03   13.6406552E-03               0.   599.265913E-06
              111                3   938.807614E-06   9.10956133E-03               0.   1.73264788E-03
              111                4   2.15035514E-03   13.0170174E-03               0.   2.03431188E-03
              112                1   2.70363153E-03   4.95671621E-03               0.   847.695279E-06
              112                2   3.12480633E-03   6.73690345E-03               0.   724.268146E-06
              112                3   1.70618203E-03   4.02049534E-03               0.   1.67312822E-03
              112                4   1.97697734E-03   5.55164833E-03               0.   1.65610306E-03
              113                1   2.16577318E-03   7.42289983E-03               0.   1.06721174E-03
              113                2   2.62178271E-03   9.04201809E-03               0.   1.15796016E-03
              113                3   1.76726817E-03   6.56792242E-03               0.   1.74871366E-03
              113                4   2.17113271E-03   8.07100534E-03               0.   1.92173454E-03
              114                1   1.24961860E-03   9.34424717E-03               0.   2.25710589E-03
              114                2   2.33268063E-03   12.2326026E-03               0.   2.83604581E-03
              114                3   1.89055409E-03   8.30148160E-03               0.   3.19446344E-03
              114                4   3.08337109E-03   11.0994652E-03               0.   3.91487405E-03
              115                1   2.74969428E-03   8.80504772E-03               0.   3.96259688E-03
              115                2   3.80141172E-03   7.75948167E-03               0.   4.26829094E-03
              115                3   1.77161838E-03   7.23600667E-03               0.   3.33418464E-03
              115                4   2.70103593E-03   6.36027055E-03               0.   3.61090596E-03
              116                1   1.62395136E-03   7.99034908E-03               0.   2.34996923E-03
              116                2   1.69806590E-03   7.27393012E-03               0.   2.62541091E-03
              116                3   1.33900729E-03   7.31538469E-03               0.   2.17704219E-03
              116                4   1.36194192E-03   6.60970062E-03               0.   2.38726288E-03
              117                1   1.01348350E-03   6.47641299E-03               0.   2.34260829E-03
              117                2   858.053158E-06   6.47079945E-03               0.   2.31410284E-03
              117                3   774.022774E-06   6.33722870E-03               0.   2.44635809E-03
              117                4   609.018607E-06   6.31297845E-03               0.   2.43679597E-03
              118                1   938.042533E-06   5.89887472E-03               0.   2.35239416E-03
              118                2   934.048090E-06   6.24088431E-03               0.   2.46903184E-03
              118                3   629.893737E-06   5.23879007E-03               0.   2.56844587E-03
              118                4   581.874570E-06   5.47442865E-03               0.   2.71197921E-03
              119                1   1.45272829E-03   4.10016673E-03               0.   2.60170479E-03
              119                2   1.86669722E-03   4.49701166E-03               0.   2.82035628E-03
              119                3   1.61147479E-03   3.75726959E-03               0.   2.55967584E-03
              119                4   2.07284954E-03   4.12049051E-03               0.   2.78327614E-03
              120                1   297.298975E-06   1.25826441E-03               0.   1.12766691E-03
              120                2  -186.076737E-06   1.28857151E-03               0.   1.54346367E-03
              120                3   1.27445243E-03   1.61102903E-03               0.   1.32958370E-03
              120                4   838.121108E-06   1.63302664E-03               0.   1.69154420E-03
              121                1  -1.12790824E-03   39.6808173E-06               0.  -108.870190E-06
              121                2  -1.44670147E-03   179.023133E-06               0.   667.589193E-06
              121                3   997.038675E-06   710.962398E-06               0.   89.4126570E-06
              121                4   514.784711E-06   774.921791E-06               0.   770.815997E-06
              122                1   1.22003979E-03   3.62952868E-03               0.   1.92344829E-03
              122                2   720.693730E-06   2.76470277E-03               0.   2.25376454E-03
              122                3   1.57454808E-03   3.52735119E-03               0.   1.78917346E-03
              122                4   1.13039883E-03   2.75706965E-03               0.   2.08309782E-03
              123                1   1.68702076E-03   1.79597305E-03               0.   601.141655E-06
              123                2   1.42326090E-03   1.55478111E-03               0.   856.072176E-06
              123                3   2.23327009E-03   1.94110465E-03               0.   577.196479E-06
              123                4   1.98156503E-03   1.71737652E-03               0.   811.280683E-06
              124                1   2.03300873E-03   5.02120005E-03               0.   1.63418090E-03
              124                2   1.43129204E-03   3.78965889E-03               0.   2.01790105E-03
              124                3   2.37973919E-03   4.87087341E-03               0.   1.40790385E-03
              124                4   1.87453395E-03   3.76786012E-03               0.   1.72963052E-03
              125                1   2.56918813E-03   3.06672091E-03               0.   627.158151E-06
              125                2   2.43069069E-03   2.71829683E-03               0.   705.770042E-06
              125                3   2.65164883E-03   3.06843896E-03               0.   539.485016E-06
              125                4   2.52503157E-03   2.73970445E-03               0.   609.326700E-06
              126                1   2.69391155E-03   3.47384601E-03               0.   495.161745E-06
              126                2   2.52470258E-03   3.43378587E-03               0.   338.107609E-06
              126                3   2.79629533E-03   3.95015534E-03               0.   519.599242E-06
              126                4   2.64673773E-03   3.93924164E-03               0.   376.990851E-06
              127                1   2.40867399E-03   4.24965471E-03               0.   285.156246E-06
              127                2   1.52554445E-03   3.99389444E-03               0.   178.210888E-06
              127                3   2.41037970E-03   4.54063807E-03               0.   570.659933E-06
              127                4   1.59891450E-03   4.32633189E-03               0.   492.804509E-06
              128                1   1.93188014E-03   4.10210574E-03               0.   1.72239984E-03
              128                2   2.26752623E-03   4.44942946E-03               0.   1.10873987E-03
              128                3   2.47334898E-03   5.70505019E-03               0.   1.48328068E-03
              128                4   2.83026719E-03   6.19409326E-03               0.   916.822231E-06
              129                1   2.14971020E-03   4.78046667E-03               0.   1.19432027E-03
              129                2   1.64703431E-03   4.79963468E-03               0.   801.103946E-06
              129                3   2.41599372E-03   5.80613082E-03               0.   1.32778741E-03
              129                4   1.96438655E-03   5.89982886E-03               0.   969.144690E-06
              130                1   2.07342138E-03   6.72102254E-03               0.   1.14125526E-03
              130                2   2.55887560E-03   8.33004061E-03               0.   1.20325387E-03
              130                3   2.10028328E-03   6.31021382E-03               0.   1.77685288E-03
              130                4   2.57836422E-03   7.87164271E-03               0.   1.86707405E-03
              131                1   2.52247998E-03   9.60154552E-03               0.   1.23336865E-03
              131                2   3.24497675E-03   12.0885661E-03               0.   902.719446E-06
              131                3   1.08639745E-03   8.50861985E-03               0.   2.38982961E-03
              131                4   1.78008596E-03   11.1712394E-03               0.   2.10712524E-03
              132                1   2.01888033E-03   6.57627545E-03               0.   1.59212458E-03
              132                2   2.65542511E-03   8.71654041E-03               0.   1.69676030E-03
              132                3   1.73636677E-03   5.77066652E-03               0.   2.45732046E-03
              132                4   2.29051546E-03   7.65177514E-03               0.   2.65558925E-03
              133                1   1.10100955E-03   9.18594003E-03               0.   2.78327451E-03
              133                2   2.06991308E-03   11.7710615E-03               0.   3.33543005E-03
              133                3   2.06570723E-03   8.28593969E-03               0.   3.69441044E-03
              133                4   3.14859068E-03   10.7705202E-03               0.   4.35327599E-03
              134                1   2.75251409E-03   4.01762174E-03               0.  -2.98232166E-03
              134                2   2.38250569E-03   4.43195086E-03               0.  -3.07488721E-03
              134                3   2.18721852E-03   3.64725874E-03               0.  -2.74514314E-03
              134                4   1.87776284E-03   4.01282683E-03               0.  -2.82975566E-03
              135                1   1.33021001E-03   5.33912051E-03               0.  -2.59469938E-03
              135                2   1.30689819E-03   5.98302763E-03               0.  -2.49833521E-03
              135                3   1.08038983E-03   5.07376250E-03               0.  -2.40669260E-03
              135                4   1.02530606E-03   5.58485556E-03               0.  -2.29815603E-03
              136                1   968.346547E-06   6.36543939E-03               0.  -1.99419330E-03
              136                2   846.422743E-06   6.57885987E-03               0.  -1.98179879E-03
              136                3   1.41399482E-03   6.81565609E-03               0.  -1.75251684E-03
              136                4   1.37336086E-03   7.05904933E-03               0.  -1.70820893E-03
              137                1   990.763423E-06   6.59223599E-03               0.  -2.14471668E-03
              137                2   1.16506836E-03   7.24220835E-03               0.  -2.33174115E-03
              137                3   1.22809922E-03   7.26787932E-03               0.  -1.80515472E-03
              137                4   1.43021520E-03   7.99124967E-03               0.  -1.93705107E-03
              138                1   2.24986207E-03   6.38413569E-03               0.  -3.33084888E-03
              138                2   3.24349012E-03   7.67163886E-03               0.  -3.93095706E-03
              138                3   1.55270402E-03   7.02859089E-03               0.  -3.07173864E-03
              138                4   2.48853443E-03   8.48690420E-03               0.  -3.66263022E-03
              139                1   3.07907211E-03   11.0905003E-03               0.  -3.90828541E-03
              139                2   2.33597495E-03   12.2128334E-03               0.  -2.83491635E-03
              139                3   1.88196881E-03   8.29154532E-03               0.  -3.18294577E-03
              139                4   1.24422298E-03   9.31474473E-03               0.  -2.24871654E-03
              140                1   2.16380507E-03   13.0157191E-03               0.  -2.04119296E-03
              140                2   2.04743072E-03   13.6343604E-03               0.  -599.898165E-06
              140                3   949.250942E-06   9.10710916E-03               0.  -1.72919780E-03
              140                4   955.829106E-06   10.0266403E-03               0.  -454.364519E-06
              141                1   2.16229632E-03   8.05574935E-03               0.  -1.91484531E-03
              141                2   2.61779199E-03   9.02151782E-03               0.  -1.15067139E-03
              141                3   1.76708552E-03   6.57977071E-03               0.  -1.74903602E-03
              141                4   2.17271550E-03   7.43998541E-03               0.  -1.06770743E-03
              142                1   2.74841022E-03   8.01635999E-03               0.  -1.00002554E-03
              142                2   3.26605281E-03   8.90863314E-03               0.  -55.0784789E-06
              142                3   2.13568704E-03   5.87910926E-03               0.  -975.181232E-06
              142                4   2.62221973E-03   6.73831301E-03               0.  -108.040949E-06
              143                1   1.97635847E-03   5.57119027E-03               0.  -1.65668654E-03
              143                2   3.12383426E-03   6.76242495E-03               0.  -724.520825E-06
              143                3   1.70423521E-03   4.03614528E-03               0.  -1.67341495E-03
              143                4   2.70003802E-03   4.97176358E-03               0.  -847.959425E-06
              144                1   3.27611319E-03   5.23032621E-03               0.  -630.376337E-06
              144                2   3.75146978E-03   5.90714533E-03               0.   51.7364970E-06
              144                3   2.87048356E-03   3.81128071E-03               0.  -663.173792E-06
              144                4   3.29952734E-03   4.38102614E-03               0.  -20.3854161E-06
              145                1   4.15813411E-03   3.80448648E-03               0.   54.3998904E-06
              145                2   3.76612064E-03   2.52760760E-03               0.  -87.0747026E-06
              145                3   3.65953916E-03   3.35759530E-03               0.  -460.762414E-06
              145                4   3.27275484E-03   2.16217409E-03               0.  -618.807331E-06
              146                1   4.41974634E-03   2.12279335E-03               0.   5.21298625E-06
              146                2   4.22730064E-03   1.49825448E-03               0.  -65.7491546E-06
              146                3   4.22335044E-03   2.00384622E-03               0.  -210.987535E-06
              146                4   4.03246563E-03   1.42129604E-03               0.  -291.638600E-06
              147                1   3.76668037E-03   4.54706186E-03               0.  -457.478978E-06
              147                2   3.07600782E-03   2.57730996E-03               0.  -805.034011E-06
              147                3   2.98498478E-03   3.85735068E-03               0.  -1.14698242E-03
              147                4   2.28655618E-03   2.04438157E-03               0.  -1.53296010E-03
              148                1   4.11368674E-03   2.14151386E-03               0.  -194.301203E-06
              148                2   3.82456579E-03   1.40986056E-03               0.  -405.866129E-06
              148                3   3.67093435E-03   1.95666403E-03               0.  -421.536504E-06
              148                4   3.36688221E-03   1.25656475E-03               0.  -636.893034E-06
              149                1   2.97682802E-03   1.01297535E-03               0.  -731.715001E-06
              149                2   2.34772614E-03   830.182689E-06               0.  -833.240978E-06
              149                3   3.26242764E-03   1.41690322E-03               0.  -446.871243E-06
              149                4   2.65831291E-03   1.25662296E-03               0.  -532.974082E-06
              150                1   1.61144068E-03   483.767188E-06               0.  -771.205174E-06
              150                2   23.0642981E-06   7.21786228E-06               0.  -755.901856E-06
              150                3   2.07462907E-03   620.718056E-06               0.  -104.121937E-06
              150                4   360.200327E-06   106.153115E-06               0.  -38.0978126E-06
              151                1   2.14786595E-03   2.02969601E-03               0.  -1.57591235E-03
              151                2   1.61474501E-03   2.03113956E-03               0.  -1.92655483E-03
              151                3   2.74305209E-03   3.34821129E-03               0.  -1.19791029E-03
              151                4   2.32241466E-03   3.50636640E-03               0.  -1.47611974E-03
              152                1   1.68135669E-03   1.24873256E-03               0.  -1.55177491E-03
              152                2   1.00745738E-03   1.06393930E-03               0.  -1.53672427E-03
              152                3   2.07376550E-03   1.47356756E-03               0.  -1.23777601E-03
              152                4   1.44550891E-03   1.31516927E-03               0.  -1.18538679E-03


********************************************************************************
Field Output Report, written Tue Jun 03 12:18:04 2025

Source 1
---------

   ODB: C:/lnms/Vid/VF/LinearnaPolja/PoljeU2/PoljeU2.odb
   Step: loading
   Frame: Increment      3: Step Time =   0.3000

Loc 1 : Integration point values from source 1

Output sorted by column "Element Label".

Field Output reported at integration points for part: SPECIMEN-1

          Element              Int            S.S11            S.S22            S.S33            S.S12
            Label               Pt           @Loc 1           @Loc 1           @Loc 1           @Loc 1
-------------------------------------------------------------------------------------------------------
                1                1   4.12086537E-03   6.05103187E-03               0.  -4.47090063E-03
                1                2   3.55756120E-03   6.67040236E-03               0.  -4.60860413E-03
                1                3   3.26946215E-03   5.49107790E-03               0.  -4.11298312E-03
                1                4   2.79801455E-03   6.03784947E-03               0.  -4.23900364E-03
                2                1   1.98849197E-03   8.00943002E-03               0.  -3.87563603E-03
                2                2   1.95213093E-03   8.96125752E-03               0.  -3.73109314E-03
                2                3   1.61808182E-03   7.61401234E-03               0.  -3.59690120E-03
                2                4   1.53484254E-03   8.36925954E-03               0.  -3.43459402E-03
                3                1   1.45138078E-03   9.53055359E-03               0.  -2.98054935E-03
                3                2   1.27453764E-03   9.85328667E-03               0.  -2.96334270E-03
                3                3   2.11263052E-03   10.2022989E-03               0.  -2.62071285E-03
                3                4   2.05580797E-03   10.5689764E-03               0.  -2.55582063E-03
                4                1   1.49118854E-03   9.88032669E-03               0.  -3.20727215E-03
                4                2   1.75545854E-03   10.8514959E-03               0.  -3.48615926E-03
                4                3   1.83639268E-03   10.8797699E-03               0.  -2.70264689E-03
                4                4   2.14074948E-03   11.9587081E-03               0.  -2.89966958E-03
                5                1   3.35526816E-03   9.59463604E-03               0.  -4.98448918E-03
                5                2   4.83855093E-03   11.5262056E-03               0.  -5.88146318E-03
                5                3   2.30640173E-03   10.5509330E-03               0.  -4.59235907E-03
                5                4   3.70310433E-03   12.7361119E-03               0.  -5.47513552E-03
                6                1   4.57144435E-03   16.6165065E-03               0.  -5.83345816E-03
                6                2   3.46481940E-03   18.2743892E-03               0.  -4.23227530E-03
                6                3   2.79329275E-03   12.4448147E-03               0.  -4.75855917E-03
                6                4   1.84215663E-03   13.9587866E-03               0.  -3.36293154E-03
                7                1   3.20375827E-03   19.4648858E-03               0.  -3.04017286E-03
                7                2   3.03325895E-03   20.3810576E-03               0.  -897.904218E-06
                7                3   1.39826792E-03   13.6503875E-03               0.  -2.58046971E-03
                7                4   1.41014950E-03   15.0163481E-03               0.  -682.172831E-06
                8                1   3.23026557E-03   12.0728426E-03               0.  -2.87572760E-03
                8                2   3.89759894E-03   13.5065606E-03               0.  -1.73456676E-03
                8                3   2.63498677E-03   9.86247137E-03               0.  -2.62669055E-03
                8                4   3.22937197E-03   11.1406213E-03               0.  -1.60864054E-03
                9                1   4.08386113E-03   12.0172445E-03               0.  -1.50161015E-03
                9                2   4.85399785E-03   13.3476481E-03               0.  -89.1356249E-06
                9                3   3.16659524E-03   8.81945621E-03               0.  -1.46485982E-03
                9                4   3.89100146E-03   10.1021891E-03               0.  -167.482343E-06
               10                1   2.95117171E-03   8.35608784E-03               0.  -2.48650624E-03
               10                2   4.65636840E-03   10.1277297E-03               0.  -1.09476771E-03
               10                3   2.54022959E-03   6.05821190E-03               0.  -2.51130504E-03
               10                4   4.01997846E-03   7.45020760E-03               0.  -1.27796934E-03
               11                1   4.87802410E-03   7.84742180E-03               0.  -949.487032E-06
               11                2   5.58676198E-03   8.85910168E-03               0.   72.3412086E-06
               11                3   4.26943367E-03   5.71977859E-03               0.  -998.472911E-06
               11                4   4.90923319E-03   6.57184748E-03               0.  -34.9083784E-06
               12                1   6.20009797E-03   5.70807233E-03               0.   77.9890761E-06
               12                2   5.61179826E-03   3.79192713E-03               0.  -133.019406E-06
               12                3   5.45632374E-03   5.03967376E-03               0.  -694.598246E-06
               12                4   4.87580150E-03   3.24545125E-03               0.  -931.001734E-06
               13                1   6.59754034E-03   3.18342191E-03               0.   5.77526362E-06
               13                2   6.30685734E-03   2.23977165E-03               0.  -99.9814220E-06
               13                3   6.30489085E-03   3.00508249E-03               0.  -320.703926E-06
               13                4   6.01678947E-03   2.12491211E-03               0.  -441.302895E-06
               14                1   5.61775174E-03   6.81407377E-03               0.  -693.535258E-06
               14                2   4.58415318E-03   3.86676216E-03               0.  -1.21270365E-03
               14                3   4.45334800E-03   5.78675000E-03               0.  -1.72457390E-03
               14                4   3.40783643E-03   3.07364645E-03               0.  -2.30222358E-03
               15                1   6.14223164E-03   3.21090594E-03               0.  -299.164356E-06
               15                2   5.70764393E-03   2.10839859E-03               0.  -614.762655E-06
               15                3   5.48336282E-03   2.93525704E-03               0.  -641.293533E-06
               15                4   5.02663897E-03   1.88036775E-03               0.  -962.938415E-06
               16                1   4.44577262E-03   1.51643541E-03               0.  -1.10668864E-03
               16                2   3.50957294E-03   1.24484603E-03               0.  -1.26053032E-03
               16                3   4.87435423E-03   2.12726393E-03               0.  -681.930804E-06
               16                4   3.97569966E-03   1.88973686E-03               0.  -812.595536E-06
               17                1   2.41022022E-03   725.245103E-06               0.  -1.16804277E-03
               17                2   33.2657619E-06   12.1259973E-06               0.  -1.14481745E-03
               17                3   3.10611003E-03   931.518385E-06               0.  -170.412270E-06
               17                4   541.272515E-06   161.698626E-06               0.  -70.4718404E-06
               18                1   3.20282578E-03   3.05158040E-03               0.  -2.36745551E-03
               18                2   2.40692496E-03   3.05723562E-03               0.  -2.89160712E-03
               18                3   4.09447681E-03   5.02380868E-03               0.  -1.80131011E-03
               18                4   3.46733560E-03   5.26355300E-03               0.  -2.21667555E-03
               19                1   2.51800357E-03   1.88553240E-03               0.  -2.33300519E-03
               19                2   1.52322953E-03   1.61388435E-03               0.  -2.31121108E-03
               19                3   3.10260314E-03   2.22351821E-03               0.  -1.86877744E-03
               19                4   2.17608572E-03   1.99159770E-03               0.  -1.79165544E-03
               20                1   3.12872441E-03   6.18962711E-03               0.  -4.17273352E-03
               20                2   2.80637410E-03   6.79118605E-03               0.  -4.22768947E-03
               20                3   2.40545510E-03   5.61518874E-03               0.  -3.81971733E-03
               20                4   2.16243346E-03   6.16679527E-03               0.  -3.88546800E-03
               21                1   886.677473E-06   8.21304601E-03               0.  -4.05503018E-03
               21                2   1.41001155E-03   9.35811549E-03               0.  -3.69431893E-03
               21                3   955.298136E-06   7.85672665E-03               0.  -3.84039478E-03
               21                4   1.41339609E-03   8.83591268E-03               0.  -3.51685099E-03
               22                1   912.193907E-06   9.47261415E-03               0.  -3.63112893E-03
               22                2   1.28663518E-03   9.68339667E-03               0.  -3.45331663E-03
               22                3   1.16533891E-03   9.51825920E-03               0.  -3.65261058E-03
               22                4   1.52528251E-03   9.70622804E-03               0.  -3.50314914E-03
               23                1   2.04549870E-03   9.90792736E-03               0.  -3.57515691E-03
               23                2   2.54800636E-03   10.9020574E-03               0.  -3.93029070E-03
               23                3   2.00574938E-03   10.9572308E-03               0.  -3.25824600E-03
               23                4   2.43159570E-03   11.9681191E-03               0.  -3.51588731E-03
               24                1   4.02784348E-03   9.56210215E-03               0.  -5.40701672E-03
               24                2   5.65953506E-03   11.6488310E-03               0.  -6.38360577E-03
               24                3   2.63812672E-03   10.8572384E-03               0.  -4.98773484E-03
               24                4   4.08865325E-03   13.1964516E-03               0.  -5.92105044E-03
               25                1   4.67319507E-03   16.1342118E-03               0.  -6.49895053E-03
               25                2   3.07069416E-03   17.6166035E-03               0.  -4.98157414E-03
               25                3   3.06698494E-03   12.4337561E-03               0.  -5.52358851E-03
               25                4   1.63232966E-03   13.7699805E-03               0.  -4.16327594E-03
               26                1   2.64758128E-03   16.7295765E-03               0.  -3.12740379E-03
               26                2   4.85652545E-03   18.1043576E-03               0.  -1.32919929E-03
               26                3   1.61161437E-03   12.7513651E-03               0.  -3.55839171E-03
               26                4   3.77854216E-03   14.3919941E-03               0.  -1.82832160E-03
               27                1   3.41475429E-03   11.4827957E-03               0.  -3.97627056E-03
               27                2   3.96351283E-03   13.0743990E-03               0.  -2.54086405E-03
               27                3   2.58411886E-03   8.66082776E-03               0.  -3.68422992E-03
               27                4   3.01049394E-03   9.86965932E-03               0.  -2.38721515E-03
               28                1   3.84404673E-03   11.8008628E-03               0.  -2.77937180E-03
               28                2   3.83264758E-03   12.4924490E-03               0.  -1.78635027E-03
               28                3   3.13014025E-03   9.46567860E-03               0.  -2.64984230E-03
               28                4   3.10707279E-03   10.0868680E-03               0.  -1.69821118E-03
               29                1   2.94548948E-03   8.85891542E-03               0.  -1.44309900E-03
               29                2   2.46978179E-03   7.21107610E-03               0.  -1.19474554E-03
               29                3   3.60996765E-03   8.71417299E-03               0.  -1.97987724E-03
               29                4   3.21042654E-03   7.17740040E-03               0.  -1.78358867E-03
               30                1   2.39943946E-03   6.50243554E-03               0.  -734.799949E-06
               30                2   2.28847633E-03   6.00392371E-03               0.  -265.870272E-06
               30                3   3.60719021E-03   6.82081468E-03               0.  -851.206307E-06
               30                4   3.60189471E-03   6.38414407E-03               0.  -425.893493E-06
               31                1   4.22967877E-03   9.30192601E-03               0.  -1.37399696E-03
               31                2   3.38771124E-03   6.69119181E-03               0.  -1.66105409E-03
               31                3   3.69963772E-03   8.57111160E-03               0.  -2.21890374E-03
               31                4   2.88885832E-03   6.17081439E-03               0.  -2.57773302E-03
               32                1   3.95828066E-03   5.92904212E-03               0.  -564.457092E-06
               32                2   3.77379637E-03   5.16720721E-03               0.  -504.863216E-06
               32                3   4.18356620E-03   5.94491838E-03               0.  -778.665475E-06
               32                4   4.02829982E-03   5.22744376E-03               0.  -740.405289E-06
               33                1   3.77727789E-03   4.12773713E-03               0.  -910.325092E-06
               33                2   3.64520471E-03   4.09869431E-03               0.  -1.05621549E-03
               33                3   3.96500528E-03   4.62481240E-03               0.  -809.620367E-06
               33                4   3.85004189E-03   4.62528737E-03               0.  -942.636339E-06
               34                1   2.96861283E-03   2.58576754E-03               0.  -1.21622055E-03
               34                2   2.13471521E-03   2.34311284E-03               0.  -1.27964129E-03
               34                3   3.33293201E-03   2.90531549E-03               0.  -873.029639E-06
               34                4   2.52499315E-03   2.69089942E-03               0.  -903.798966E-06
               35                1   773.161009E-06   1.16652856E-03               0.  -1.15192973E-03
               35                2  -2.16042995E-03   275.619153E-06               0.  -999.655109E-06
               35                3   1.51406811E-03   1.07954023E-03               0.  -131.047214E-06
               35                4  -1.67496968E-03   73.8314993E-06               0.   161.092466E-06
               36                1   2.80699925E-03   5.67470118E-03               0.  -2.59135501E-03
               36                2   2.15218216E-03   5.70969190E-03               0.  -3.01923556E-03
               36                3   3.56120267E-03   7.32079102E-03               0.  -2.11149547E-03
               36                4   3.04813194E-03   7.54765747E-03               0.  -2.44818791E-03
               37                1   1.69912551E-03   4.17003408E-03               0.  -3.11072124E-03
               37                2   1.06929790E-03   4.18134499E-03               0.  -3.35860089E-03
               37                3   2.35463306E-03   5.28790476E-03               0.  -2.67512398E-03
               37                4   1.81088992E-03   5.43641020E-03               0.  -2.86721927E-03
               38                1   1.25045283E-03   2.42165453E-03               0.  -2.53176223E-03
               38                2  -273.409329E-06   1.91202760E-03               0.  -2.31641415E-03
               38                3   1.92190590E-03   2.40243319E-03               0.  -1.98803283E-03
               38                4   465.443154E-06   1.88034493E-03               0.  -1.69097143E-03
               39                1   4.09004884E-03   13.1959310E-03               0.   5.92199760E-03
               39                2   5.66188758E-03   11.6478968E-03               0.   6.38388097E-03
               39                3   2.63671321E-03   10.8552556E-03               0.   4.98718396E-03
               39                4   4.02678177E-03   9.55788139E-03               0.   5.40542929E-03
               40                1   2.42757099E-03   11.9628059E-03               0.   3.51821515E-03
               40                2   2.54742429E-03   10.8999833E-03               0.   3.92901665E-03
               40                3   2.00060522E-03   10.9537998E-03               0.   3.25924158E-03
               40                4   2.04252475E-03   9.90543049E-03               0.   3.57269752E-03
               41                1   1.52283302E-03   9.70540754E-03               0.   3.50266765E-03
               41                2   1.28646032E-03   9.69210733E-03               0.   3.45695484E-03
               41                3   1.16180989E-03   9.50304139E-03               0.   3.65675567E-03
               41                4   911.282084E-06   9.46343597E-03               0.   3.63970338E-03
               42                1   1.40519615E-03   8.84398632E-03               0.   3.51332081E-03
               42                2   1.39700517E-03   9.35233105E-03               0.   3.68449278E-03
               42                3   944.492698E-06   7.86559191E-03               0.   3.83626553E-03
               42                4   870.516757E-06   8.21640808E-03               0.   4.04778915E-03
               43                1   2.16738833E-03   6.17394410E-03               0.   3.89874238E-03
               43                2   2.79334560E-03   6.77488279E-03               0.   4.22946829E-03
               43                3   2.41233897E-03   5.65983960E-03               0.   3.83572327E-03
               43                4   3.11067374E-03   6.21085381E-03               0.   4.17406112E-03
               44                1   464.032637E-06   1.91039767E-03               0.   1.70311367E-03
               44                2  -259.192369E-06   1.95416692E-03               0.   2.31899926E-03
               44                3   1.91230257E-03   2.43433937E-03               0.   2.00453773E-03
               44                4   1.25998352E-03   2.46585603E-03               0.   2.54043494E-03
               45                1  -1.66752283E-03   67.6428535E-06               0.  -156.678521E-06
               45                2  -2.14617327E-03   277.505809E-06               0.   1.00227701E-03
               45                3   1.50359783E-03   1.07032957E-03               0.   141.851124E-06
               45                4   781.786512E-06   1.16731494E-03               0.   1.15777762E-03
               46                1   1.82472682E-03   5.45663480E-03               0.   2.88070901E-03
               46                2   1.07602333E-03   4.16501751E-03               0.   3.37564084E-03
               46                3   2.35481537E-03   5.30259451E-03               0.   2.68118433E-03
               46                4   1.68908853E-03   4.15216386E-03               0.   3.12146288E-03
               47                1   2.53176596E-03   2.70814076E-03               0.   905.648398E-06
               47                2   2.13929196E-03   2.34777923E-03               0.   1.28379744E-03
               47                3   3.34104523E-03   2.92271492E-03               0.   869.629381E-06
               47                4   2.96669011E-03   2.58853566E-03               0.   1.21678447E-03
               48                1   3.03733675E-03   7.53109949E-03               0.   2.44840304E-03
               48                2   2.13956111E-03   5.69826411E-03               0.   3.02113127E-03
               48                3   3.55382520E-03   7.30590196E-03               0.   2.11240607E-03
               48                4   2.80028908E-03   5.66418050E-03               0.   2.59249588E-03
               49                1   3.84348701E-03   4.61421255E-03               0.   940.840982E-06
               49                2   3.63783306E-03   4.09406936E-03               0.   1.05690188E-03
               49                3   3.96338152E-03   4.61563142E-03               0.   809.770485E-06
               49                4   3.77526158E-03   4.12482768E-03               0.   912.779884E-06
               50                1   4.02828306E-03   5.22630010E-03               0.   740.867225E-06
               50                2   3.77533934E-03   5.16627170E-03               0.   506.071141E-06
               50                3   4.18124394E-03   5.93815651E-03               0.   777.299108E-06
               50                4   3.95769114E-03   5.92173822E-03               0.   564.153073E-06
               51                1   3.60354572E-03   6.38471125E-03               0.   425.954553E-06
               51                2   2.28877016E-03   6.00402430E-03               0.   265.783776E-06
               51                3   3.60693596E-03   6.82039745E-03               0.   850.831973E-06
               51                4   2.39900942E-03   6.50169281E-03               0.   734.233588E-06
               52                1   2.88697705E-03   6.16713986E-03               0.   2.57863943E-03
               52                2   3.38651426E-03   6.68415241E-03               0.   1.66070368E-03
               52                3   3.69651336E-03   8.56382679E-03               0.   2.22079409E-03
               52                4   4.22767969E-03   9.29258857E-03               0.   1.37412630E-03
               53                1   3.21274856E-03   7.17785954E-03               0.   1.78313942E-03
               53                2   2.47007492E-03   7.20973872E-03               0.   1.19400234E-03
               53                3   3.61213600E-03   8.71317834E-03               0.   1.97993754E-03
               53                4   2.94554397E-03   8.85651726E-03               0.   1.44273194E-03
               54                1   3.10658524E-03   10.0842463E-03               0.   1.69808604E-03
               54                2   3.83223291E-03   12.4899475E-03               0.   1.78655633E-03
               54                3   3.13082663E-03   9.46447346E-03               0.   2.65015592E-03
               54                4   3.84472730E-03   11.7992265E-03               0.   2.78026192E-03
               55                1   3.77805694E-03   14.3897841E-03               0.   1.82846701E-03
               55                2   4.85595642E-03   18.1024503E-03               0.   1.32978009E-03
               55                3   1.61265105E-03   12.7507215E-03               0.   3.55818123E-03
               55                4   2.64759408E-03   16.7279169E-03               0.   3.12839216E-03
               56                1   3.00865108E-03   9.86366719E-03               0.   2.38539721E-03
               56                2   3.96105926E-03   13.0653875E-03               0.   2.54112063E-03
               56                3   2.58716592E-03   8.66231229E-03               0.   3.68078076E-03
               56                4   3.41655943E-03   11.4783822E-03               0.   3.97560652E-03
               57                1   1.63139321E-03   13.7656732E-03               0.   4.16154647E-03
               57                2   3.07124853E-03   17.6124144E-03               0.   4.98129940E-03
               57                3   3.06711649E-03   12.4321198E-03               0.   5.52119454E-03
               57                4   4.67488216E-03   16.1314830E-03               0.   6.49805088E-03
               58                1   3.70510784E-03   12.7208009E-03               0.   5.48270997E-03
               58                2   4.83467057E-03   11.5211140E-03               0.   5.89243043E-03
               58                3   2.32742517E-03   10.5545074E-03               0.   4.61110892E-03
               58                4   3.37966904E-03   9.62196197E-03               0.   5.01170661E-03
               59                1   2.14293157E-03   11.9544854E-03               0.   2.89545907E-03
               59                2   1.75966485E-03   10.8583272E-03               0.   3.48322303E-03
               59                3   1.83874054E-03   10.8745014E-03               0.   2.69828178E-03
               59                4   1.49122067E-03   9.86976922E-03               0.   3.20019759E-03
               60                1   2.05409573E-03   10.5535127E-03               0.   2.55824463E-03
               60                2   1.27638225E-03   9.84284002E-03               0.   2.96225795E-03
               60                3   2.11369083E-03   10.1953102E-03               0.   2.62425723E-03
               60                4   1.45478116E-03   9.53022484E-03               0.   2.98136822E-03
               61                1   1.53784431E-03   8.36695824E-03               0.   3.43496096E-03
               61                2   1.95493875E-03   8.96196533E-03               0.   3.73273785E-03
               61                3   1.61633617E-03   7.60063296E-03               0.   3.59944999E-03
               61                4   1.98646658E-03   7.99713098E-03               0.   3.88012198E-03
               62                1   2.79864413E-03   6.03877287E-03               0.   4.23979806E-03
               62                2   3.55873280E-03   6.67298958E-03               0.   4.61007049E-03
               62                3   3.26894526E-03   5.48783038E-03               0.   4.11409745E-03
               62                4   4.12153825E-03   6.04906539E-03               0.   4.47298633E-03
               63                1   2.17503239E-03   1.99104380E-03               0.   1.78992422E-03
               63                2   1.52029586E-03   1.60998048E-03               0.   2.31061899E-03
               63                3   3.10283690E-03   2.22279946E-03               0.   1.86607672E-03
               63                4   2.51614838E-03   1.88166578E-03               0.   2.33142776E-03
               64                1   539.808942E-06   162.164928E-06               0.   69.8439108E-06
               64                2   31.3422606E-06   11.7680174E-06               0.   1.14432001E-03
               64                3   3.10606626E-03   932.346215E-06               0.   169.118794E-06
               64                4   2.40893872E-03   725.065067E-06               0.   1.16723205E-03
               65                1   3.46757146E-03   5.25810011E-03               0.   2.21336843E-03
               65                2   2.40361877E-03   3.04899924E-03               0.   2.89099687E-03
               65                3   4.10062354E-03   5.02249040E-03               0.   1.79647561E-03
               65                4   3.20480717E-03   3.04636755E-03               0.   2.36584502E-03
               66                1   3.97433154E-03   1.88707537E-03               0.   812.227081E-06
               66                2   3.50834080E-03   1.24382426E-03               0.   1.26000389E-03
               66                3   4.87375399E-03   2.12510070E-03               0.   681.776204E-06
               66                4   4.44503594E-03   1.51564088E-03               0.   1.10652286E-03
               67                1   5.02638845E-03   1.87991618E-03               0.   962.812337E-06
               67                2   5.70849795E-03   2.10842281E-03               0.   614.378892E-06
               67                3   5.48338518E-03   2.93424702E-03               0.   640.935788E-06
               67                4   6.14362489E-03   3.21080722E-03               0.   298.345927E-06
               68                1   6.01773523E-03   2.12448044E-03               0.   441.000826E-06
               68                2   6.30694628E-03   2.23867293E-03               0.   100.344907E-06
               68                3   6.30517351E-03   3.00225639E-03               0.   320.616760E-06
               68                4   6.59658527E-03   3.17883515E-03               0.  -4.99667976E-06
               69                1   3.40836099E-03   3.06528015E-03               0.   2.30177888E-03
               69                2   4.58720000E-03   3.86086409E-03               0.   1.21259631E-03
               69                3   4.45218198E-03   5.76883694E-03               0.   1.72388554E-03
               69                4   5.61979087E-03   6.79962384E-03               0.   692.335598E-06
               70                1   4.87976987E-03   3.24488711E-03               0.   929.946953E-06
               70                2   5.61139686E-03   3.78472474E-03               0.   132.839297E-06
               70                3   5.45922387E-03   5.03440062E-03               0.   694.060931E-06
               70                4   6.19689422E-03   5.69137651E-03               0.  -76.5770455E-06
               71                1   4.90605645E-03   6.55317400E-03               0.   33.5333898E-06
               71                2   5.58363693E-03   8.84004589E-03               0.  -71.4566486E-06
               71                3   4.27672267E-03   5.71673177E-03               0.   998.089323E-06
               71                4   4.88658948E-03   7.84688257E-03               0.   951.088150E-06
               72                1   3.88582447E-03   10.0835757E-03               0.   167.547943E-06
               72                2   4.85685328E-03   13.3575993E-03               0.   91.5403798E-06
               72                3   3.17367492E-03   8.82557873E-03               0.   1.45661400E-03
               72                4   4.08870773E-03   12.0205032E-03               0.   1.50088780E-03
               73                1   1.41501753E-03   15.0475185E-03               0.   688.925444E-06
               73                2   3.03061772E-03   20.3903820E-03               0.   896.949088E-06
               73                3   1.38274347E-03   13.6541566E-03               0.   2.58553587E-03
               73                4   3.18375719E-03   19.4667727E-03               0.   3.02987313E-03
               74                1   4.02537081E-03   7.42771151E-03               0.   1.27757271E-03
               74                2   4.65781102E-03   10.0895464E-03               0.   1.09436689E-03
               74                3   2.54311180E-03   6.03480591E-03               0.   2.51086755E-03
               74                4   2.95204413E-03   8.32683221E-03               0.   2.48561008E-03
               75                1   3.21898400E-03   11.1150900E-03               0.   1.60781271E-03
               75                2   3.90364439E-03   13.5372765E-03               0.   1.74537010E-03
               75                3   2.63512135E-03   9.84473713E-03               0.   2.62615620E-03
               75                4   3.24338535E-03   12.0956935E-03               0.   2.88594910E-03
               76                1   1.85006566E-03   14.0029779E-03               0.   3.37540219E-03
               76                2   3.45970062E-03   18.3038060E-03               0.   4.23389580E-03
               76                3   2.80587259E-03   12.4599747E-03               0.   4.77568433E-03
               76                4   4.57753520E-03   16.6299623E-03               0.   5.84316719E-03
               77                1   3.12872441E-03   6.18962711E-03               0.  -4.17273352E-03
               77                2   2.80637410E-03   6.79118605E-03               0.  -4.22768947E-03
               77                3   2.40545510E-03   5.61518874E-03               0.  -3.81971733E-03
               77                4   2.16243346E-03   6.16679527E-03               0.  -3.88546800E-03
               78                1   886.677473E-06   8.21304601E-03               0.  -4.05503018E-03
               78                2   1.41001155E-03   9.35811549E-03               0.  -3.69431893E-03
               78                3   955.298136E-06   7.85672665E-03               0.  -3.84039478E-03
               78                4   1.41339609E-03   8.83591268E-03               0.  -3.51685099E-03
               79                1   912.193907E-06   9.47261415E-03               0.  -3.63112893E-03
               79                2   1.28663518E-03   9.68339667E-03               0.  -3.45331663E-03
               79                3   1.16533891E-03   9.51825920E-03               0.  -3.65261058E-03
               79                4   1.52528251E-03   9.70622804E-03               0.  -3.50314914E-03
               80                1   2.04549870E-03   9.90792736E-03               0.  -3.57515691E-03
               80                2   2.54800636E-03   10.9020574E-03               0.  -3.93029070E-03
               80                3   2.00574938E-03   10.9572308E-03               0.  -3.25824600E-03
               80                4   2.43159570E-03   11.9681191E-03               0.  -3.51588731E-03
               81                1   4.02784348E-03   9.56210215E-03               0.  -5.40701672E-03
               81                2   5.65953506E-03   11.6488310E-03               0.  -6.38360577E-03
               81                3   2.63812672E-03   10.8572384E-03               0.  -4.98773484E-03
               81                4   4.08865325E-03   13.1964516E-03               0.  -5.92105044E-03
               82                1   4.67319507E-03   16.1342118E-03               0.  -6.49895053E-03
               82                2   3.07069416E-03   17.6166035E-03               0.  -4.98157414E-03
               82                3   3.06698494E-03   12.4337561E-03               0.  -5.52358851E-03
               82                4   1.63232966E-03   13.7699805E-03               0.  -4.16327594E-03
               83                1   2.64758128E-03   16.7295765E-03               0.  -3.12740379E-03
               83                2   4.85652545E-03   18.1043576E-03               0.  -1.32919929E-03
               83                3   1.61161437E-03   12.7513651E-03               0.  -3.55839171E-03
               83                4   3.77854216E-03   14.3919941E-03               0.  -1.82832160E-03
               84                1   3.41475429E-03   11.4827957E-03               0.  -3.97627056E-03
               84                2   3.96351283E-03   13.0743990E-03               0.  -2.54086405E-03
               84                3   2.58411886E-03   8.66082776E-03               0.  -3.68422992E-03
               84                4   3.01049394E-03   9.86965932E-03               0.  -2.38721515E-03
               85                1   3.84404673E-03   11.8008628E-03               0.  -2.77937180E-03
               85                2   3.83264758E-03   12.4924490E-03               0.  -1.78635027E-03
               85                3   3.13014025E-03   9.46567860E-03               0.  -2.64984230E-03
               85                4   3.10707279E-03   10.0868680E-03               0.  -1.69821118E-03
               86                1   2.94548948E-03   8.85891542E-03               0.  -1.44309900E-03
               86                2   2.46978179E-03   7.21107610E-03               0.  -1.19474554E-03
               86                3   3.60996765E-03   8.71417299E-03               0.  -1.97987724E-03
               86                4   3.21042654E-03   7.17740040E-03               0.  -1.78358867E-03
               87                1   2.39943946E-03   6.50243554E-03               0.  -734.799949E-06
               87                2   2.28847633E-03   6.00392371E-03               0.  -265.870272E-06
               87                3   3.60719021E-03   6.82081468E-03               0.  -851.206307E-06
               87                4   3.60189471E-03   6.38414407E-03               0.  -425.893493E-06
               88                1   4.22967877E-03   9.30192601E-03               0.  -1.37399696E-03
               88                2   3.38771124E-03   6.69119181E-03               0.  -1.66105409E-03
               88                3   3.69963772E-03   8.57111160E-03               0.  -2.21890374E-03
               88                4   2.88885832E-03   6.17081439E-03               0.  -2.57773302E-03
               89                1   3.95828066E-03   5.92904212E-03               0.  -564.457092E-06
               89                2   3.77379637E-03   5.16720721E-03               0.  -504.863216E-06
               89                3   4.18356620E-03   5.94491838E-03               0.  -778.665475E-06
               89                4   4.02829982E-03   5.22744376E-03               0.  -740.405289E-06
               90                1   3.77727789E-03   4.12773713E-03               0.  -910.325092E-06
               90                2   3.64520471E-03   4.09869431E-03               0.  -1.05621549E-03
               90                3   3.96500528E-03   4.62481240E-03               0.  -809.620367E-06
               90                4   3.85004189E-03   4.62528737E-03               0.  -942.636339E-06
               91                1   2.96861283E-03   2.58576754E-03               0.  -1.21622055E-03
               91                2   2.13471521E-03   2.34311284E-03               0.  -1.27964129E-03
               91                3   3.33293201E-03   2.90531549E-03               0.  -873.029639E-06
               91                4   2.52499315E-03   2.69089942E-03               0.  -903.798966E-06
               92                1   773.161009E-06   1.16652856E-03               0.  -1.15192973E-03
               92                2  -2.16042995E-03   275.619153E-06               0.  -999.655109E-06
               92                3   1.51406811E-03   1.07954023E-03               0.  -131.047214E-06
               92                4  -1.67496968E-03   73.8314993E-06               0.   161.092466E-06
               93                1   2.80699925E-03   5.67470118E-03               0.  -2.59135501E-03
               93                2   2.15218216E-03   5.70969190E-03               0.  -3.01923556E-03
               93                3   3.56120267E-03   7.32079102E-03               0.  -2.11149547E-03
               93                4   3.04813194E-03   7.54765747E-03               0.  -2.44818791E-03
               94                1   1.69912551E-03   4.17003408E-03               0.  -3.11072124E-03
               94                2   1.06929790E-03   4.18134499E-03               0.  -3.35860089E-03
               94                3   2.35463306E-03   5.28790476E-03               0.  -2.67512398E-03
               94                4   1.81088992E-03   5.43641020E-03               0.  -2.86721927E-03
               95                1   1.25045283E-03   2.42165453E-03               0.  -2.53176223E-03
               95                2  -273.409329E-06   1.91202760E-03               0.  -2.31641415E-03
               95                3   1.92190590E-03   2.40243319E-03               0.  -1.98803283E-03
               95                4   465.443154E-06   1.88034493E-03               0.  -1.69097143E-03
               96                1   3.70510784E-03   12.7208009E-03               0.   5.48270997E-03
               96                2   4.83467057E-03   11.5211140E-03               0.   5.89243043E-03
               96                3   2.32742517E-03   10.5545074E-03               0.   4.61110892E-03
               96                4   3.37966904E-03   9.62196197E-03               0.   5.01170661E-03
               97                1   2.14293157E-03   11.9544854E-03               0.   2.89545907E-03
               97                2   1.75966485E-03   10.8583272E-03               0.   3.48322303E-03
               97                3   1.83874054E-03   10.8745014E-03               0.   2.69828178E-03
               97                4   1.49122067E-03   9.86976922E-03               0.   3.20019759E-03
               98                1   2.05409573E-03   10.5535127E-03               0.   2.55824463E-03
               98                2   1.27638225E-03   9.84284002E-03               0.   2.96225795E-03
               98                3   2.11369083E-03   10.1953102E-03               0.   2.62425723E-03
               98                4   1.45478116E-03   9.53022484E-03               0.   2.98136822E-03
               99                1   1.53784431E-03   8.36695824E-03               0.   3.43496096E-03
               99                2   1.95493875E-03   8.96196533E-03               0.   3.73273785E-03
               99                3   1.61633617E-03   7.60063296E-03               0.   3.59944999E-03
               99                4   1.98646658E-03   7.99713098E-03               0.   3.88012198E-03
              100                1   2.79864413E-03   6.03877287E-03               0.   4.23979806E-03
              100                2   3.55873280E-03   6.67298958E-03               0.   4.61007049E-03
              100                3   3.26894526E-03   5.48783038E-03               0.   4.11409745E-03
              100                4   4.12153825E-03   6.04906539E-03               0.   4.47298633E-03
              101                1   2.17503239E-03   1.99104380E-03               0.   1.78992422E-03
              101                2   1.52029586E-03   1.60998048E-03               0.   2.31061899E-03
              101                3   3.10283690E-03   2.22279946E-03               0.   1.86607672E-03
              101                4   2.51614838E-03   1.88166578E-03               0.   2.33142776E-03
              102                1   539.808942E-06   162.164928E-06               0.   69.8439108E-06
              102                2   31.3422606E-06   11.7680174E-06               0.   1.14432001E-03
              102                3   3.10606626E-03   932.346215E-06               0.   169.118794E-06
              102                4   2.40893872E-03   725.065067E-06               0.   1.16723205E-03
              103                1   3.46757146E-03   5.25810011E-03               0.   2.21336843E-03
              103                2   2.40361877E-03   3.04899924E-03               0.   2.89099687E-03
              103                3   4.10062354E-03   5.02249040E-03               0.   1.79647561E-03
              103                4   3.20480717E-03   3.04636755E-03               0.   2.36584502E-03
              104                1   3.97433154E-03   1.88707537E-03               0.   812.227081E-06
              104                2   3.50834080E-03   1.24382426E-03               0.   1.26000389E-03
              104                3   4.87375399E-03   2.12510070E-03               0.   681.776204E-06
              104                4   4.44503594E-03   1.51564088E-03               0.   1.10652286E-03
              105                1   5.02638845E-03   1.87991618E-03               0.   962.812337E-06
              105                2   5.70849795E-03   2.10842281E-03               0.   614.378892E-06
              105                3   5.48338518E-03   2.93424702E-03               0.   640.935788E-06
              105                4   6.14362489E-03   3.21080722E-03               0.   298.345927E-06
              106                1   6.01773523E-03   2.12448044E-03               0.   441.000826E-06
              106                2   6.30694628E-03   2.23867293E-03               0.   100.344907E-06
              106                3   6.30517351E-03   3.00225639E-03               0.   320.616760E-06
              106                4   6.59658527E-03   3.17883515E-03               0.  -4.99667976E-06
              107                1   3.40836099E-03   3.06528015E-03               0.   2.30177888E-03
              107                2   4.58720000E-03   3.86086409E-03               0.   1.21259631E-03
              107                3   4.45218198E-03   5.76883694E-03               0.   1.72388554E-03
              107                4   5.61979087E-03   6.79962384E-03               0.   692.335598E-06
              108                1   4.87976987E-03   3.24488711E-03               0.   929.946953E-06
              108                2   5.61139686E-03   3.78472474E-03               0.   132.839297E-06
              108                3   5.45922387E-03   5.03440062E-03               0.   694.060931E-06
              108                4   6.19689422E-03   5.69137651E-03               0.  -76.5770455E-06
              109                1   4.90605645E-03   6.55317400E-03               0.   33.5333898E-06
              109                2   5.58363693E-03   8.84004589E-03               0.  -71.4566486E-06
              109                3   4.27672267E-03   5.71673177E-03               0.   998.089323E-06
              109                4   4.88658948E-03   7.84688257E-03               0.   951.088150E-06
              110                1   3.88582447E-03   10.0835757E-03               0.   167.547943E-06
              110                2   4.85685328E-03   13.3575993E-03               0.   91.5403798E-06
              110                3   3.17367492E-03   8.82557873E-03               0.   1.45661400E-03
              110                4   4.08870773E-03   12.0205032E-03               0.   1.50088780E-03
              111                1   1.41501753E-03   15.0475185E-03               0.   688.925444E-06
              111                2   3.03061772E-03   20.3903820E-03               0.   896.949088E-06
              111                3   1.38274347E-03   13.6541566E-03               0.   2.58553587E-03
              111                4   3.18375719E-03   19.4667727E-03               0.   3.02987313E-03
              112                1   4.02537081E-03   7.42771151E-03               0.   1.27757271E-03
              112                2   4.65781102E-03   10.0895464E-03               0.   1.09436689E-03
              112                3   2.54311180E-03   6.03480591E-03               0.   2.51086755E-03
              112                4   2.95204413E-03   8.32683221E-03               0.   2.48561008E-03
              113                1   3.21898400E-03   11.1150900E-03               0.   1.60781271E-03
              113                2   3.90364439E-03   13.5372765E-03               0.   1.74537010E-03
              113                3   2.63512135E-03   9.84473713E-03               0.   2.62615620E-03
              113                4   3.24338535E-03   12.0956935E-03               0.   2.88594910E-03
              114                1   1.85006566E-03   14.0029779E-03               0.   3.37540219E-03
              114                2   3.45970062E-03   18.3038060E-03               0.   4.23389580E-03
              114                3   2.80587259E-03   12.4599747E-03               0.   4.77568433E-03
              114                4   4.57753520E-03   16.6299623E-03               0.   5.84316719E-03
              115                1   4.09004884E-03   13.1959310E-03               0.   5.92199760E-03
              115                2   5.66188758E-03   11.6478968E-03               0.   6.38388097E-03
              115                3   2.63671321E-03   10.8552556E-03               0.   4.98718396E-03
              115                4   4.02678177E-03   9.55788139E-03               0.   5.40542929E-03
              116                1   2.42757099E-03   11.9628059E-03               0.   3.51821515E-03
              116                2   2.54742429E-03   10.8999833E-03               0.   3.92901665E-03
              116                3   2.00060522E-03   10.9537998E-03               0.   3.25924158E-03
              116                4   2.04252475E-03   9.90543049E-03               0.   3.57269752E-03
              117                1   1.52283302E-03   9.70540754E-03               0.   3.50266765E-03
              117                2   1.28646032E-03   9.69210733E-03               0.   3.45695484E-03
              117                3   1.16180989E-03   9.50304139E-03               0.   3.65675567E-03
              117                4   911.282084E-06   9.46343597E-03               0.   3.63970338E-03
              118                1   1.40519615E-03   8.84398632E-03               0.   3.51332081E-03
              118                2   1.39700517E-03   9.35233105E-03               0.   3.68449278E-03
              118                3   944.492698E-06   7.86559191E-03               0.   3.83626553E-03
              118                4   870.516757E-06   8.21640808E-03               0.   4.04778915E-03
              119                1   2.16738833E-03   6.17394410E-03               0.   3.89874238E-03
              119                2   2.79334560E-03   6.77488279E-03               0.   4.22946829E-03
              119                3   2.41233897E-03   5.65983960E-03               0.   3.83572327E-03
              119                4   3.11067374E-03   6.21085381E-03               0.   4.17406112E-03
              120                1   464.032637E-06   1.91039767E-03               0.   1.70311367E-03
              120                2  -259.192369E-06   1.95416692E-03               0.   2.31899926E-03
              120                3   1.91230257E-03   2.43433937E-03               0.   2.00453773E-03
              120                4   1.25998352E-03   2.46585603E-03               0.   2.54043494E-03
              121                1  -1.66752283E-03   67.6428535E-06               0.  -156.678521E-06
              121                2  -2.14617327E-03   277.505809E-06               0.   1.00227701E-03
              121                3   1.50359783E-03   1.07032957E-03               0.   141.851124E-06
              121                4   781.786512E-06   1.16731494E-03               0.   1.15777762E-03
              122                1   1.82472682E-03   5.45663480E-03               0.   2.88070901E-03
              122                2   1.07602333E-03   4.16501751E-03               0.   3.37564084E-03
              122                3   2.35481537E-03   5.30259451E-03               0.   2.68118433E-03
              122                4   1.68908853E-03   4.15216386E-03               0.   3.12146288E-03
              123                1   2.53176596E-03   2.70814076E-03               0.   905.648398E-06
              123                2   2.13929196E-03   2.34777923E-03               0.   1.28379744E-03
              123                3   3.34104523E-03   2.92271492E-03               0.   869.629381E-06
              123                4   2.96669011E-03   2.58853566E-03               0.   1.21678447E-03
              124                1   3.03733675E-03   7.53109949E-03               0.   2.44840304E-03
              124                2   2.13956111E-03   5.69826411E-03               0.   3.02113127E-03
              124                3   3.55382520E-03   7.30590196E-03               0.   2.11240607E-03
              124                4   2.80028908E-03   5.66418050E-03               0.   2.59249588E-03
              125                1   3.84348701E-03   4.61421255E-03               0.   940.840982E-06
              125                2   3.63783306E-03   4.09406936E-03               0.   1.05690188E-03
              125                3   3.96338152E-03   4.61563142E-03               0.   809.770485E-06
              125                4   3.77526158E-03   4.12482768E-03               0.   912.779884E-06
              126                1   4.02828306E-03   5.22630010E-03               0.   740.867225E-06
              126                2   3.77533934E-03   5.16627170E-03               0.   506.071141E-06
              126                3   4.18124394E-03   5.93815651E-03               0.   777.299108E-06
              126                4   3.95769114E-03   5.92173822E-03               0.   564.153073E-06
              127                1   3.60354572E-03   6.38471125E-03               0.   425.954553E-06
              127                2   2.28877016E-03   6.00402430E-03               0.   265.783776E-06
              127                3   3.60693596E-03   6.82039745E-03               0.   850.831973E-06
              127                4   2.39900942E-03   6.50169281E-03               0.   734.233588E-06
              128                1   2.88697705E-03   6.16713986E-03               0.   2.57863943E-03
              128                2   3.38651426E-03   6.68415241E-03               0.   1.66070368E-03
              128                3   3.69651336E-03   8.56382679E-03               0.   2.22079409E-03
              128                4   4.22767969E-03   9.29258857E-03               0.   1.37412630E-03
              129                1   3.21274856E-03   7.17785954E-03               0.   1.78313942E-03
              129                2   2.47007492E-03   7.20973872E-03               0.   1.19400234E-03
              129                3   3.61213600E-03   8.71317834E-03               0.   1.97993754E-03
              129                4   2.94554397E-03   8.85651726E-03               0.   1.44273194E-03
              130                1   3.10658524E-03   10.0842463E-03               0.   1.69808604E-03
              130                2   3.83223291E-03   12.4899475E-03               0.   1.78655633E-03
              130                3   3.13082663E-03   9.46447346E-03               0.   2.65015592E-03
              130                4   3.84472730E-03   11.7992265E-03               0.   2.78026192E-03
              131                1   3.77805694E-03   14.3897841E-03               0.   1.82846701E-03
              131                2   4.85595642E-03   18.1024503E-03               0.   1.32978009E-03
              131                3   1.61265105E-03   12.7507215E-03               0.   3.55818123E-03
              131                4   2.64759408E-03   16.7279169E-03               0.   3.12839216E-03
              132                1   3.00865108E-03   9.86366719E-03               0.   2.38539721E-03
              132                2   3.96105926E-03   13.0653875E-03               0.   2.54112063E-03
              132                3   2.58716592E-03   8.66231229E-03               0.   3.68078076E-03
              132                4   3.41655943E-03   11.4783822E-03               0.   3.97560652E-03
              133                1   1.63139321E-03   13.7656732E-03               0.   4.16154647E-03
              133                2   3.07124853E-03   17.6124144E-03               0.   4.98129940E-03
              133                3   3.06711649E-03   12.4321198E-03               0.   5.52119454E-03
              133                4   4.67488216E-03   16.1314830E-03               0.   6.49805088E-03
              134                1   4.12086537E-03   6.05103187E-03               0.  -4.47090063E-03
              134                2   3.55756120E-03   6.67040236E-03               0.  -4.60860413E-03
              134                3   3.26946215E-03   5.49107790E-03               0.  -4.11298312E-03
              134                4   2.79801455E-03   6.03784947E-03               0.  -4.23900364E-03
              135                1   1.98849197E-03   8.00943002E-03               0.  -3.87563603E-03
              135                2   1.95213093E-03   8.96125752E-03               0.  -3.73109314E-03
              135                3   1.61808182E-03   7.61401234E-03               0.  -3.59690120E-03
              135                4   1.53484254E-03   8.36925954E-03               0.  -3.43459402E-03
              136                1   1.45138078E-03   9.53055359E-03               0.  -2.98054935E-03
              136                2   1.27453764E-03   9.85328667E-03               0.  -2.96334270E-03
              136                3   2.11263052E-03   10.2022989E-03               0.  -2.62071285E-03
              136                4   2.05580797E-03   10.5689764E-03               0.  -2.55582063E-03
              137                1   1.49118854E-03   9.88032669E-03               0.  -3.20727215E-03
              137                2   1.75545854E-03   10.8514959E-03               0.  -3.48615926E-03
              137                3   1.83639268E-03   10.8797699E-03               0.  -2.70264689E-03
              137                4   2.14074948E-03   11.9587081E-03               0.  -2.89966958E-03
              138                1   3.35526816E-03   9.59463604E-03               0.  -4.98448918E-03
              138                2   4.83855093E-03   11.5262056E-03               0.  -5.88146318E-03
              138                3   2.30640173E-03   10.5509330E-03               0.  -4.59235907E-03
              138                4   3.70310433E-03   12.7361119E-03               0.  -5.47513552E-03
              139                1   4.57144435E-03   16.6165065E-03               0.  -5.83345816E-03
              139                2   3.46481940E-03   18.2743892E-03               0.  -4.23227530E-03
              139                3   2.79329275E-03   12.4448147E-03               0.  -4.75855917E-03
              139                4   1.84215663E-03   13.9587866E-03               0.  -3.36293154E-03
              140                1   3.20375827E-03   19.4648858E-03               0.  -3.04017286E-03
              140                2   3.03325895E-03   20.3810576E-03               0.  -897.904218E-06
              140                3   1.39826792E-03   13.6503875E-03               0.  -2.58046971E-03
              140                4   1.41014950E-03   15.0163481E-03               0.  -682.172831E-06
              141                1   3.23026557E-03   12.0728426E-03               0.  -2.87572760E-03
              141                2   3.89759894E-03   13.5065606E-03               0.  -1.73456676E-03
              141                3   2.63498677E-03   9.86247137E-03               0.  -2.62669055E-03
              141                4   3.22937197E-03   11.1406213E-03               0.  -1.60864054E-03
              142                1   4.08386113E-03   12.0172445E-03               0.  -1.50161015E-03
              142                2   4.85399785E-03   13.3476481E-03               0.  -89.1356249E-06
              142                3   3.16659524E-03   8.81945621E-03               0.  -1.46485982E-03
              142                4   3.89100146E-03   10.1021891E-03               0.  -167.482343E-06
              143                1   2.95117171E-03   8.35608784E-03               0.  -2.48650624E-03
              143                2   4.65636840E-03   10.1277297E-03               0.  -1.09476771E-03
              143                3   2.54022959E-03   6.05821190E-03               0.  -2.51130504E-03
              143                4   4.01997846E-03   7.45020760E-03               0.  -1.27796934E-03
              144                1   4.87802410E-03   7.84742180E-03               0.  -949.487032E-06
              144                2   5.58676198E-03   8.85910168E-03               0.   72.3412086E-06
              144                3   4.26943367E-03   5.71977859E-03               0.  -998.472911E-06
              144                4   4.90923319E-03   6.57184748E-03               0.  -34.9083784E-06
              145                1   6.20009797E-03   5.70807233E-03               0.   77.9890761E-06
              145                2   5.61179826E-03   3.79192713E-03               0.  -133.019406E-06
              145                3   5.45632374E-03   5.03967376E-03               0.  -694.598246E-06
              145                4   4.87580150E-03   3.24545125E-03               0.  -931.001734E-06
              146                1   6.59754034E-03   3.18342191E-03               0.   5.77526362E-06
              146                2   6.30685734E-03   2.23977165E-03               0.  -99.9814220E-06
              146                3   6.30489085E-03   3.00508249E-03               0.  -320.703926E-06
              146                4   6.01678947E-03   2.12491211E-03               0.  -441.302895E-06
              147                1   5.61775174E-03   6.81407377E-03               0.  -693.535258E-06
              147                2   4.58415318E-03   3.86676216E-03               0.  -1.21270365E-03
              147                3   4.45334800E-03   5.78675000E-03               0.  -1.72457390E-03
              147                4   3.40783643E-03   3.07364645E-03               0.  -2.30222358E-03
              148                1   6.14223164E-03   3.21090594E-03               0.  -299.164356E-06
              148                2   5.70764393E-03   2.10839859E-03               0.  -614.762655E-06
              148                3   5.48336282E-03   2.93525704E-03               0.  -641.293533E-06
              148                4   5.02663897E-03   1.88036775E-03               0.  -962.938415E-06
              149                1   4.44577262E-03   1.51643541E-03               0.  -1.10668864E-03
              149                2   3.50957294E-03   1.24484603E-03               0.  -1.26053032E-03
              149                3   4.87435423E-03   2.12726393E-03               0.  -681.930804E-06
              149                4   3.97569966E-03   1.88973686E-03               0.  -812.595536E-06
              150                1   2.41022022E-03   725.245103E-06               0.  -1.16804277E-03
              150                2   33.2657619E-06   12.1259973E-06               0.  -1.14481745E-03
              150                3   3.10611003E-03   931.518385E-06               0.  -170.412270E-06
              150                4   541.272515E-06   161.698626E-06               0.  -70.4718404E-06
              151                1   3.20282578E-03   3.05158040E-03               0.  -2.36745551E-03
              151                2   2.40692496E-03   3.05723562E-03               0.  -2.89160712E-03
              151                3   4.09447681E-03   5.02380868E-03               0.  -1.80131011E-03
              151                4   3.46733560E-03   5.26355300E-03               0.  -2.21667555E-03
              152                1   2.51800357E-03   1.88553240E-03               0.  -2.33300519E-03
              152                2   1.52322953E-03   1.61388435E-03               0.  -2.31121108E-03
              152                3   3.10260314E-03   2.22351821E-03               0.  -1.86877744E-03
              152                4   2.17608572E-03   1.99159770E-03               0.  -1.79165544E-03


********************************************************************************
Field Output Report, written Tue Jun 03 12:18:06 2025

Source 1
---------

   ODB: C:/lnms/Vid/VF/LinearnaPolja/PoljeU2/PoljeU2.odb
   Step: loading
   Frame: Increment      4: Step Time =   0.4000

Loc 1 : Integration point values from source 1

Output sorted by column "Element Label".

Field Output reported at integration points for part: SPECIMEN-1

          Element              Int            S.S11            S.S22            S.S33            S.S12
            Label               Pt           @Loc 1           @Loc 1           @Loc 1           @Loc 1
-------------------------------------------------------------------------------------------------------
                1                1   5.48379403E-03   8.10035784E-03               0.  -5.95764071E-03
                1                2   4.72183153E-03   8.92332476E-03               0.  -6.13965979E-03
                1                3   4.34416998E-03   7.34796049E-03               0.  -5.47760213E-03
                1                4   3.70601751E-03   8.07485729E-03               0.  -5.64437872E-03
                2                1   2.64238147E-03   10.6799640E-03               0.  -5.14589436E-03
                2                2   2.59202975E-03   11.9306119E-03               0.  -4.95325867E-03
                2                3   2.15413189E-03   10.1562236E-03               0.  -4.77855746E-03
                2                4   2.04229960E-03   11.1482358E-03               0.  -4.56287106E-03
                3                1   1.93363463E-03   12.6840090E-03               0.  -3.96001572E-03
                3                2   1.70578272E-03   13.1177623E-03               0.  -3.93891474E-03
                3                3   2.80573638E-03   13.5749504E-03               0.  -3.48373898E-03
                3                4   2.73538195E-03   14.0659558E-03               0.  -3.39929573E-03
                4                1   1.99475675E-03   13.1629109E-03               0.  -4.26358730E-03
                4                2   2.35084700E-03   14.4528663E-03               0.  -4.63334145E-03
                4                3   2.44073663E-03   14.4771598E-03               0.  -3.59693891E-03
                4                4   2.84812064E-03   15.9077719E-03               0.  -3.85862635E-03
                5                1   4.44781920E-03   12.8167272E-03               0.  -6.63024187E-03
                5                2   6.41595013E-03   15.3923482E-03               0.  -7.82190263E-03
                5                3   3.04539967E-03   14.0780769E-03               0.  -6.10289909E-03
                5                4   4.89828410E-03   16.9884097E-03               0.  -7.27516459E-03
                6                1   6.03322219E-03   22.1290998E-03               0.  -7.73953088E-03
                6                2   4.56844643E-03   24.3061837E-03               0.  -5.61646931E-03
                6                3   3.68535751E-03   16.6022927E-03               0.  -6.32354850E-03
                6                4   2.42456608E-03   18.5936783E-03               0.  -4.47040051E-03
                7                1   4.21677809E-03   25.8751549E-03               0.  -4.02507046E-03
                7                2   3.99474986E-03   27.0813163E-03               0.  -1.19461247E-03
                7                3   1.83092197E-03   18.1862302E-03               0.  -3.42294131E-03
                7                4   1.84939324E-03   19.9900046E-03               0.  -910.323346E-06
                8                1   4.28928155E-03   16.0826389E-03               0.  -3.83874122E-03
                8                2   5.15831308E-03   17.9746877E-03               0.  -2.32388685E-03
                8                3   3.49245709E-03   13.1402994E-03               0.  -3.50630982E-03
                8                4   4.26663039E-03   14.8285264E-03               0.  -2.15407507E-03
                9                1   5.39404294E-03   16.0127841E-03               0.  -2.00403598E-03
                9                2   6.41260296E-03   17.7760627E-03               0.  -127.354317E-06
                9                3   4.17350279E-03   11.7599675E-03               0.  -1.95574178E-03
                9                4   5.13231149E-03   13.4622203E-03               0.  -230.383768E-06
               10                1   3.91710689E-03   11.1403251E-03               0.  -3.31724808E-03
               10                2   6.16958039E-03   13.4824989E-03               0.  -1.47016847E-03
               10                3   3.36558395E-03   8.08270648E-03               0.  -3.34991561E-03
               10                4   5.32018300E-03   9.92363691E-03               0.  -1.71184784E-03
               11                1   6.45623822E-03   10.4654552E-03               0.  -1.27106917E-03
               11                2   7.39555759E-03   11.8096396E-03               0.   89.5485209E-06
               11                3   5.64462878E-03   7.62992958E-03               0.  -1.33611902E-03
               11                4   6.49273349E-03   8.76262598E-03               0.  -52.2230293E-06
               12                1   8.21767468E-03   7.61231780E-03               0.   99.2420100E-06
               12                2   7.43293250E-03   5.05644456E-03               0.  -180.516450E-06
               12                3   7.23140920E-03   6.72370149E-03               0.  -930.638926E-06
               12                4   6.45694556E-03   4.33003716E-03               0.  -1.24497351E-03
               13                1   8.75419285E-03   4.24343208E-03               0.   5.01420664E-06
               13                2   8.36397242E-03   2.97625130E-03               0.  -135.092778E-06
               13                3   8.36654939E-03   4.00576135E-03               0.  -433.148118E-06
               13                4   7.98008498E-03   2.82387249E-03               0.  -593.455217E-06
               14                1   7.44757475E-03   9.07667447E-03               0.  -934.301177E-06
               14                2   6.07265346E-03   5.15664229E-03               0.  -1.62367139E-03
               14                3   5.90577582E-03   7.71647738E-03               0.  -2.30475958E-03
               14                4   4.51460294E-03   4.10745805E-03               0.  -3.07322084E-03
               15                1   8.15209001E-03   4.27932432E-03               0.  -409.017171E-06
               15                2   7.57144857E-03   2.80270842E-03               0.  -827.520445E-06
               15                3   7.28051923E-03   3.91394692E-03               0.  -866.865215E-06
               15                4   6.67070411E-03   2.50120042E-03               0.  -1.29390566E-03
               16                1   5.90176508E-03   2.01789360E-03               0.  -1.48757244E-03
               16                2   4.66330536E-03   1.65921112E-03               0.  -1.69474841E-03
               16                3   6.47346163E-03   2.83886516E-03               0.  -924.515829E-06
               16                4   5.28514944E-03   2.52598780E-03               0.  -1.10073364E-03
               17                1   3.20421671E-03   966.460328E-06               0.  -1.57219812E-03
               17                2   42.4147256E-06   17.9074468E-06               0.  -1.54087669E-03
               17                3   4.13356815E-03   1.24266942E-03               0.  -246.003940E-06
               17                4   722.852943E-06   218.949324E-06               0.  -111.561647E-06
               18                1   4.24525375E-03   4.07804176E-03               0.  -3.16123478E-03
               18                2   3.18901101E-03   4.09017084E-03               0.  -3.85767431E-03
               18                3   5.43260714E-03   6.70025172E-03               0.  -2.40750541E-03
               18                4   4.60142130E-03   7.02318689E-03               0.  -2.95872334E-03
               19                1   3.35181854E-03   2.53055431E-03               0.  -3.11763864E-03
               19                2   2.04659998E-03   2.17566639E-03               0.  -3.08963633E-03
               19                3   4.12591174E-03   2.98214774E-03               0.  -2.50754715E-03
               19                4   2.91140773E-03   2.68040434E-03               0.  -2.40667444E-03
               20                1   4.17304318E-03   8.29241704E-03               0.  -5.56244329E-03
               20                2   3.73258675E-03   9.09287203E-03               0.  -5.63521869E-03
               20                3   3.20104393E-03   7.51857320E-03               0.  -5.08812629E-03
               20                4   2.86804629E-03   8.25325307E-03               0.  -5.17559191E-03
               21                1   1.17919850E-03   10.9567065E-03               0.  -5.38017787E-03
               21                2   1.87455723E-03   12.4653606E-03               0.  -4.90071857E-03
               21                3   1.27318664E-03   10.4850996E-03               0.  -5.09895105E-03
               21                4   1.88194611E-03   11.7753232E-03               0.  -4.66912799E-03
               22                1   1.21326372E-03   12.6217194E-03               0.  -4.82118269E-03
               22                2   1.71476987E-03   12.8924139E-03               0.  -4.58589522E-03
               22                3   1.55473000E-03   12.6868701E-03               0.  -4.85335384E-03
               22                4   2.03713635E-03   12.9292523E-03               0.  -4.65615606E-03
               23                1   2.72667431E-03   13.1984027E-03               0.  -4.75613493E-03
               23                2   3.39759933E-03   14.5215476E-03               0.  -5.22847008E-03
               23                3   2.66375532E-03   14.5841129E-03               0.  -4.33605583E-03
               23                4   3.23093124E-03   15.9274265E-03               0.  -4.67904331E-03
               24                1   5.33762248E-03   12.7722342E-03               0.  -7.19464198E-03
               24                2   7.49294227E-03   15.5428760E-03               0.  -8.48671608E-03
               24                3   3.49016627E-03   14.4778062E-03               0.  -6.63153920E-03
               24                4   5.40614594E-03   17.5797548E-03               0.  -7.86570180E-03
               25                1   6.16780529E-03   21.4798078E-03               0.  -8.62298999E-03
               25                2   4.04999545E-03   23.4301910E-03               0.  -6.61313301E-03
               25                3   4.04790184E-03   16.5822059E-03               0.  -7.33750639E-03
               25                4   2.14990717E-03   18.3421448E-03               0.  -5.53317927E-03
               26                1   3.50046600E-03   22.2674496E-03               0.  -4.12706332E-03
               26                2   6.46000542E-03   24.0983497E-03               0.  -1.74014026E-03
               26                3   2.12652166E-03   16.9854369E-03               0.  -4.70924238E-03
               26                4   5.03042899E-03   19.1722866E-03               0.  -2.40917294E-03
               27                1   4.52749105E-03   15.3109999E-03               0.  -5.29121840E-03
               27                2   5.25540905E-03   17.4196903E-03               0.  -3.38237453E-03
               27                3   3.42243304E-03   11.5559120E-03               0.  -4.90525318E-03
               27                4   3.98794189E-03   13.1583046E-03               0.  -3.17913573E-03
               28                1   5.09522762E-03   15.7233197E-03               0.  -3.67884012E-03
               28                2   5.10201417E-03   16.6494399E-03               0.  -2.35752435E-03
               28                3   4.14761947E-03   12.6195857E-03               0.  -3.51302815E-03
               28                4   4.13797284E-03   13.4524442E-03               0.  -2.24597729E-03
               29                1   3.92584642E-03   11.8205855E-03               0.  -1.90955307E-03
               29                2   3.29234079E-03   9.62817762E-03               0.  -1.58282660E-03
               29                3   4.79754433E-03   11.6239460E-03               0.  -2.62424303E-03
               29                4   4.26488975E-03   9.57917143E-03               0.  -2.36702641E-03
               30                1   3.20002227E-03   8.68586916E-03               0.  -973.130518E-06
               30                2   3.05184512E-03   8.02251790E-03               0.  -352.458737E-06
               30                3   4.79807332E-03   9.10673011E-03               0.  -1.12809637E-03
               30                4   4.78993915E-03   8.52556992E-03               0.  -565.490103E-06
               31                1   5.61602926E-03   12.4042053E-03               0.  -1.83046388E-03
               31                2   4.49733157E-03   8.93460494E-03               0.  -2.21146992E-03
               31                3   4.91489004E-03   11.4361439E-03               0.  -2.95300339E-03
               31                4   3.83741339E-03   8.24604183E-03               0.  -3.43031622E-03
               32                1   5.26120095E-03   7.92221911E-03               0.  -750.804786E-06
               32                2   5.01615740E-03   6.91008102E-03               0.  -671.691378E-06
               32                3   5.56049636E-03   7.94344302E-03               0.  -1.03539240E-03
               32                4   5.35429409E-03   6.99030142E-03               0.  -984.699815E-06
               33                1   5.01997303E-03   5.52369514E-03               0.  -1.21213158E-03
               33                2   4.84919595E-03   5.48673840E-03               0.  -1.40592724E-03
               33                3   5.26792603E-03   6.18340354E-03               0.  -1.08014781E-03
               33                4   5.11959242E-03   6.18554698E-03               0.  -1.25691260E-03
               34                1   3.95044126E-03   3.46407946E-03               0.  -1.62137602E-03
               34                2   2.85193580E-03   3.14469635E-03               0.  -1.70571392E-03
               34                3   4.43205796E-03   3.88830435E-03               0.  -1.16898457E-03
               34                4   3.36807873E-03   3.60650895E-03               0.  -1.21017557E-03
               35                1   1.04351423E-03   1.56189280E-03               0.  -1.53793208E-03
               35                2  -2.84907874E-03   379.352859E-06               0.  -1.33399293E-03
               35                3   2.02916586E-03   1.44440623E-03               0.  -184.958582E-06
               35                4  -2.20126170E-03   109.082866E-06               0.   206.082681E-06
               36                1   3.72732547E-03   7.58242840E-03               0.  -3.45246354E-03
               36                2   2.85970257E-03   7.63087533E-03               0.  -4.01799893E-03
               36                3   4.72722808E-03   9.76022147E-03               0.  -2.81599071E-03
               36                4   4.04790463E-03   10.0622792E-03               0.  -3.26040271E-03
               37                1   2.25685653E-03   5.58157684E-03               0.  -4.14329534E-03
               37                2   1.41923118E-03   5.59846312E-03               0.  -4.47134674E-03
               37                3   3.13015282E-03   7.06548570E-03               0.  -3.56339966E-03
               37                4   2.40752357E-03   7.26445671E-03               0.  -3.81702138E-03
               38                1   1.67102413E-03   3.25051579E-03               0.  -3.37983551E-03
               38                2  -338.259473E-06   2.57759588E-03               0.  -3.09355860E-03
               38                3   2.56318878E-03   3.22673842E-03               0.  -2.66421470E-03
               38                4   644.279411E-06   2.53750314E-03               0.  -2.27001356E-03
               39                1   5.40800951E-03   17.5790600E-03               0.   7.86696095E-03
               39                2   7.49605754E-03   15.5416140E-03               0.   8.48709513E-03
               39                3   3.48831341E-03   14.4751575E-03               0.   6.63081184E-03
               39                4   5.33623062E-03   12.7666015E-03               0.   7.19255349E-03
               40                1   3.22562992E-03   15.9204043E-03               0.   4.68210550E-03
               40                2   3.39683075E-03   14.5187676E-03               0.   5.22676529E-03
               40                3   2.65695713E-03   14.5795625E-03               0.   4.33734525E-03
               40                4   2.72272760E-03   13.1950434E-03               0.   4.75284690E-03
               41                1   2.03384832E-03   12.9281515E-03               0.   4.65547759E-03
               41                2   1.71447801E-03   12.9039716E-03               0.   4.59065055E-03
               41                3   1.55007164E-03   12.6667237E-03               0.   4.85886168E-03
               41                4   1.21209037E-03   12.6096392E-03               0.   4.83256485E-03
               42                1   1.87113881E-03   11.7858527E-03               0.   4.66437638E-03
               42                2   1.85740751E-03   12.4574434E-03               0.   4.88764793E-03
               42                3   1.25895592E-03   10.4968259E-03               0.   5.09337941E-03
               42                4   1.15785270E-03   10.9610520E-03               0.   5.37044508E-03
               43                1   2.87429569E-03   8.26285221E-03               0.   5.19305095E-03
               43                2   3.71529465E-03   9.07147303E-03               0.   5.63757634E-03
               43                3   3.20990081E-03   7.57783046E-03               0.   5.10912668E-03
               43                4   4.14905418E-03   8.32058210E-03               0.   5.56405727E-03
               44                1   642.219093E-06   2.57754163E-03               0.   2.28599180E-03
               44                2  -319.534156E-06   2.63368338E-03               0.   3.09689832E-03
               44                3   2.55027087E-03   3.26926191E-03               0.   2.68593174E-03
               44                4   1.68348278E-03   3.30934743E-03               0.   3.39120743E-03
               45                1  -2.19135615E-03   100.977122E-06               0.  -200.135881E-06
               45                2  -2.83013354E-03   381.890713E-06               0.   1.33751379E-03
               45                3   2.01515900E-03   1.43226376E-03               0.   199.329079E-06
               45                4   1.05485425E-03   1.56293728E-03               0.   1.54570770E-03
               46                1   2.42581824E-03   7.29141897E-03               0.   3.83486040E-03
               46                2   1.42799702E-03   5.57685271E-03               0.   4.49402910E-03
               46                3   3.13043664E-03   7.08508445E-03               0.   3.57136410E-03
               46                4   2.24348740E-03   5.55791520E-03               0.   4.15758044E-03
               47                1   3.37707554E-03   3.62948119E-03               0.   1.21263275E-03
               47                2   2.85796821E-03   3.15091270E-03               0.   1.71124202E-03
               47                3   4.44284035E-03   3.91147565E-03               0.   1.16447685E-03
               47                4   3.94793414E-03   3.46779451E-03               0.   1.62212714E-03
               48                1   4.03361255E-03   10.0402609E-03               0.   3.26067838E-03
               48                2   2.84297206E-03   7.61565519E-03               0.   4.02050093E-03
               48                3   4.71747667E-03   9.74041596E-03               0.   2.81719468E-03
               48                4   3.71844345E-03   7.56840641E-03               0.   3.45397810E-03
               49                1   5.11087617E-03   6.17077015E-03               0.   1.25452096E-03
               49                2   4.83944174E-03   5.48058609E-03               0.   1.40682445E-03
               49                3   5.26575418E-03   6.17114687E-03               0.   1.08035316E-03
               49                4   5.01732156E-03   5.51982131E-03               0.   1.21539249E-03
               50                1   5.35429921E-03   6.98878197E-03               0.   985.309249E-06
               50                2   5.01820119E-03   6.90882746E-03               0.   673.298724E-06
               50                3   5.55742532E-03   7.93443806E-03               0.   1.03358831E-03
               50                4   5.26040001E-03   7.91248400E-03               0.   750.418403E-06
               51                1   4.79212683E-03   8.52632336E-03               0.   565.572234E-06
               51                2   3.05223558E-03   8.02265387E-03               0.   352.343253E-06
               51                3   4.79774037E-03   9.10618249E-03               0.   1.12760125E-03
               51                4   3.19945393E-03   8.68488848E-03               0.   972.380163E-06
               52                1   3.83492722E-03   8.24115891E-03               0.   3.43153183E-03
               52                2   4.49574180E-03   8.92523210E-03               0.   2.21102242E-03
               52                3   4.91075031E-03   11.4264460E-03               0.   2.95552774E-03
               52                4   5.61337220E-03   12.3917609E-03               0.   1.83065468E-03
               53                1   4.26797150E-03   9.57978982E-03               0.   2.36643176E-03
               53                2   3.29272868E-03   9.62640624E-03               0.   1.58184406E-03
               53                3   4.80041467E-03   11.6226263E-03               0.   2.62432871E-03
               53                4   3.92591488E-03   11.8174022E-03               0.   1.90907228E-03
               54                1   4.13732370E-03   13.4489657E-03               0.   2.24581943E-03
               54                2   5.10146189E-03   16.6461281E-03               0.   2.35780817E-03
               54                3   4.14852705E-03   12.6179894E-03               0.   3.51345236E-03
               54                4   5.09612076E-03   15.7211535E-03               0.   3.68003361E-03
               55                1   5.02978172E-03   19.1693678E-03               0.   2.40937481E-03
               55                2   6.45924546E-03   24.0958333E-03               0.   1.74091395E-03
               55                3   2.12787976E-03   16.9845913E-03               0.   4.70897183E-03
               55                4   3.50044994E-03   22.2652555E-03               0.   4.12838068E-03
               56                1   3.98551067E-03   13.1503120E-03               0.   3.17673758E-03
               56                2   5.25217084E-03   17.4077097E-03               0.   3.38273402E-03
               56                3   3.42650781E-03   11.5578631E-03               0.   4.90068924E-03
               56                4   4.52991389E-03   15.3051279E-03               0.   5.29036345E-03
               57                1   2.14868644E-03   18.3364227E-03               0.   5.53089473E-03
               57                2   4.05074889E-03   23.4246459E-03               0.   6.61277352E-03
               57                3   4.04809834E-03   16.5800117E-03               0.   7.33434642E-03
               57                4   6.17005909E-03   21.4761924E-03               0.   8.62181373E-03
               58                1   4.90075909E-03   16.9683490E-03               0.   7.28517491E-03
               58                2   6.41076081E-03   15.3858587E-03               0.   7.83637725E-03
               58                3   3.07300081E-03   14.0830595E-03               0.   6.12769835E-03
               58                4   4.48000478E-03   12.8533458E-03               0.   6.66624820E-03
               59                1   2.85101379E-03   15.9023665E-03               0.   3.85319768E-03
               59                2   2.35664682E-03   14.4619998E-03               0.   4.62963711E-03
               59                3   2.44368822E-03   14.4701600E-03               0.   3.59120895E-03
               59                4   1.99474697E-03   13.1487595E-03               0.   4.25428990E-03
               60                1   2.73311441E-03   14.0455021E-03               0.   3.40249506E-03
               60                2   1.70812500E-03   13.1038297E-03               0.   3.93743953E-03
               60                3   2.80715222E-03   13.5657424E-03               0.   3.48841934E-03
               60                4   1.93809578E-03   12.6835508E-03               0.   3.96106811E-03
               61                1   2.04626075E-03   11.1451466E-03               0.   4.56335070E-03
               61                2   2.59574852E-03   11.9315498E-03               0.   4.95543191E-03
               61                3   2.15180777E-03   10.1384781E-03               0.   4.78195585E-03
               61                4   2.63969740E-03   10.6636956E-03               0.   5.15186228E-03
               62                1   3.70685663E-03   8.07608757E-03               0.   5.64543856E-03
               62                2   4.72336868E-03   8.92675202E-03               0.   6.14159647E-03
               62                3   4.34348267E-03   7.34367501E-03               0.   5.47909318E-03
               62                4   5.48467459E-03   8.09777249E-03               0.   5.96041046E-03
               63                1   2.91003170E-03   2.67965510E-03               0.   2.40438199E-03
               63                2   2.04272848E-03   2.17047473E-03               0.   3.08885518E-03
               63                3   4.12623445E-03   2.98117311E-03               0.   2.50397553E-03
               63                4   3.34937475E-03   2.52540642E-03               0.   3.11555550E-03
               64                1   720.903161E-06   219.554538E-06               0.   110.727269E-06
               64                2   39.8556513E-06   17.4266770E-06               0.   1.54021836E-03
               64                3   4.13351459E-03   1.24375767E-03               0.   244.288531E-06
               64                4   3.20251775E-03   966.217893E-06               0.   1.57112593E-03
               65                1   4.60175285E-03   7.01591326E-03               0.   2.95435125E-03
               65                2   3.18462797E-03   4.07921616E-03               0.   3.85688315E-03
               65                3   5.44078834E-03   6.69846777E-03               0.   2.40111025E-03
               65                4   4.24789777E-03   4.07110481E-03               0.   3.15912021E-03
               66                1   5.28333616E-03   2.52244435E-03               0.   1.10024726E-03
               66                2   4.66167554E-03   1.65785139E-03               0.   1.69405469E-03
               66                3   6.47267094E-03   2.83598877E-03               0.   924.313325E-06
               66                4   5.90079557E-03   2.01683887E-03               0.   1.48735766E-03
               67                1   6.67038234E-03   2.50059669E-03               0.   1.29374361E-03
               67                2   7.57259736E-03   2.80273915E-03               0.   827.015960E-06
               67                3   7.28055509E-03   3.91258672E-03               0.   866.391347E-06
               67                4   8.15394986E-03   4.27918043E-03               0.   407.930638E-06
               68                1   7.98135344E-03   2.82330206E-03               0.   593.057484E-06
               68                2   8.36409070E-03   2.97478726E-03               0.   135.576774E-06
               68                3   8.36693402E-03   4.00200440E-03               0.   433.036446E-06
               68                4   8.75291880E-03   4.23731608E-03               0.  -3.97716030E-06
               69                1   4.51531075E-03   4.09631012E-03               0.   3.07264994E-03
               69                2   6.07672893E-03   5.14879171E-03               0.   1.62354053E-03
               69                3   5.90423727E-03   7.69265415E-03               0.   2.30386201E-03
               69                4   7.45030725E-03   9.05747246E-03               0.   932.712690E-06
               70                1   6.46225270E-03   4.32928884E-03               0.   1.24357373E-03
               70                2   7.43239420E-03   5.04683796E-03               0.   180.272618E-06
               70                3   7.23528676E-03   6.71668211E-03               0.   929.931644E-06
               70                4   8.21340270E-03   7.59007130E-03               0.  -97.3655042E-06
               71                1   6.48850948E-03   8.73774569E-03               0.   50.3898627E-06
               71                2   7.39140250E-03   11.7842583E-03               0.  -88.3644097E-06
               71                3   5.65438671E-03   7.62589183E-03               0.   1.33561180E-03
               71                4   6.46769069E-03   10.4647502E-03               0.   1.27321156E-03
               72                1   5.12540434E-03   13.4374416E-03               0.   230.453996E-06
               72                2   6.41638972E-03   17.7892894E-03               0.   130.514876E-06
               72                3   4.18279925E-03   11.7680356E-03               0.   1.94478210E-03
               72                4   5.40038152E-03   16.0170831E-03               0.   2.00305902E-03
               73                1   1.85586466E-03   20.0313739E-03               0.   919.233426E-06
               73                2   3.99123691E-03   27.0935949E-03               0.   1.19333109E-03
               73                3   1.81041029E-03   18.1913730E-03               0.   3.42955394E-03
               73                4   4.19034204E-03   25.8775949E-03               0.   4.01136838E-03
               74                1   5.32737467E-03   9.89374239E-03               0.   1.71131850E-03
               74                2   6.17148448E-03   13.4317195E-03               0.   1.46960525E-03
               74                3   3.36937699E-03   8.05158913E-03               0.   3.34932213E-03
               74                4   3.91819794E-03   11.1013940E-03               0.   3.31602572E-03
               75                1   4.25281469E-03   14.7946132E-03               0.   2.15286086E-03
               75                2   5.16645145E-03   18.0155914E-03               0.   2.33812071E-03
               75                3   3.49245616E-03   13.1167043E-03               0.   3.50552960E-03
               75                4   4.30659857E-03   16.1130615E-03               0.   3.85222048E-03
               76                1   2.43487163E-03   18.6525118E-03               0.   4.48687747E-03
               76                2   4.56139306E-03   24.3450906E-03               0.   5.61853219E-03
               76                3   3.70174181E-03   16.6228376E-03               0.   6.34617917E-03
               76                4   6.04087953E-03   22.1470464E-03               0.   7.75224576E-03
               77                1   4.17304318E-03   8.29241704E-03               0.  -5.56244329E-03
               77                2   3.73258675E-03   9.09287203E-03               0.  -5.63521869E-03
               77                3   3.20104393E-03   7.51857320E-03               0.  -5.08812629E-03
               77                4   2.86804629E-03   8.25325307E-03               0.  -5.17559191E-03
               78                1   1.17919850E-03   10.9567065E-03               0.  -5.38017787E-03
               78                2   1.87455723E-03   12.4653606E-03               0.  -4.90071857E-03
               78                3   1.27318664E-03   10.4850996E-03               0.  -5.09895105E-03
               78                4   1.88194611E-03   11.7753232E-03               0.  -4.66912799E-03
               79                1   1.21326372E-03   12.6217194E-03               0.  -4.82118269E-03
               79                2   1.71476987E-03   12.8924139E-03               0.  -4.58589522E-03
               79                3   1.55473000E-03   12.6868701E-03               0.  -4.85335384E-03
               79                4   2.03713635E-03   12.9292523E-03               0.  -4.65615606E-03
               80                1   2.72667431E-03   13.1984027E-03               0.  -4.75613493E-03
               80                2   3.39759933E-03   14.5215476E-03               0.  -5.22847008E-03
               80                3   2.66375532E-03   14.5841129E-03               0.  -4.33605583E-03
               80                4   3.23093124E-03   15.9274265E-03               0.  -4.67904331E-03
               81                1   5.33762248E-03   12.7722342E-03               0.  -7.19464198E-03
               81                2   7.49294227E-03   15.5428760E-03               0.  -8.48671608E-03
               81                3   3.49016627E-03   14.4778062E-03               0.  -6.63153920E-03
               81                4   5.40614594E-03   17.5797548E-03               0.  -7.86570180E-03
               82                1   6.16780529E-03   21.4798078E-03               0.  -8.62298999E-03
               82                2   4.04999545E-03   23.4301910E-03               0.  -6.61313301E-03
               82                3   4.04790184E-03   16.5822059E-03               0.  -7.33750639E-03
               82                4   2.14990717E-03   18.3421448E-03               0.  -5.53317927E-03
               83                1   3.50046600E-03   22.2674496E-03               0.  -4.12706332E-03
               83                2   6.46000542E-03   24.0983497E-03               0.  -1.74014026E-03
               83                3   2.12652166E-03   16.9854369E-03               0.  -4.70924238E-03
               83                4   5.03042899E-03   19.1722866E-03               0.  -2.40917294E-03
               84                1   4.52749105E-03   15.3109999E-03               0.  -5.29121840E-03
               84                2   5.25540905E-03   17.4196903E-03               0.  -3.38237453E-03
               84                3   3.42243304E-03   11.5559120E-03               0.  -4.90525318E-03
               84                4   3.98794189E-03   13.1583046E-03               0.  -3.17913573E-03
               85                1   5.09522762E-03   15.7233197E-03               0.  -3.67884012E-03
               85                2   5.10201417E-03   16.6494399E-03               0.  -2.35752435E-03
               85                3   4.14761947E-03   12.6195857E-03               0.  -3.51302815E-03
               85                4   4.13797284E-03   13.4524442E-03               0.  -2.24597729E-03
               86                1   3.92584642E-03   11.8205855E-03               0.  -1.90955307E-03
               86                2   3.29234079E-03   9.62817762E-03               0.  -1.58282660E-03
               86                3   4.79754433E-03   11.6239460E-03               0.  -2.62424303E-03
               86                4   4.26488975E-03   9.57917143E-03               0.  -2.36702641E-03
               87                1   3.20002227E-03   8.68586916E-03               0.  -973.130518E-06
               87                2   3.05184512E-03   8.02251790E-03               0.  -352.458737E-06
               87                3   4.79807332E-03   9.10673011E-03               0.  -1.12809637E-03
               87                4   4.78993915E-03   8.52556992E-03               0.  -565.490103E-06
               88                1   5.61602926E-03   12.4042053E-03               0.  -1.83046388E-03
               88                2   4.49733157E-03   8.93460494E-03               0.  -2.21146992E-03
               88                3   4.91489004E-03   11.4361439E-03               0.  -2.95300339E-03
               88                4   3.83741339E-03   8.24604183E-03               0.  -3.43031622E-03
               89                1   5.26120095E-03   7.92221911E-03               0.  -750.804786E-06
               89                2   5.01615740E-03   6.91008102E-03               0.  -671.691378E-06
               89                3   5.56049636E-03   7.94344302E-03               0.  -1.03539240E-03
               89                4   5.35429409E-03   6.99030142E-03               0.  -984.699815E-06
               90                1   5.01997303E-03   5.52369514E-03               0.  -1.21213158E-03
               90                2   4.84919595E-03   5.48673840E-03               0.  -1.40592724E-03
               90                3   5.26792603E-03   6.18340354E-03               0.  -1.08014781E-03
               90                4   5.11959242E-03   6.18554698E-03               0.  -1.25691260E-03
               91                1   3.95044126E-03   3.46407946E-03               0.  -1.62137602E-03
               91                2   2.85193580E-03   3.14469635E-03               0.  -1.70571392E-03
               91                3   4.43205796E-03   3.88830435E-03               0.  -1.16898457E-03
               91                4   3.36807873E-03   3.60650895E-03               0.  -1.21017557E-03
               92                1   1.04351423E-03   1.56189280E-03               0.  -1.53793208E-03
               92                2  -2.84907874E-03   379.352859E-06               0.  -1.33399293E-03
               92                3   2.02916586E-03   1.44440623E-03               0.  -184.958582E-06
               92                4  -2.20126170E-03   109.082866E-06               0.   206.082681E-06
               93                1   3.72732547E-03   7.58242840E-03               0.  -3.45246354E-03
               93                2   2.85970257E-03   7.63087533E-03               0.  -4.01799893E-03
               93                3   4.72722808E-03   9.76022147E-03               0.  -2.81599071E-03
               93                4   4.04790463E-03   10.0622792E-03               0.  -3.26040271E-03
               94                1   2.25685653E-03   5.58157684E-03               0.  -4.14329534E-03
               94                2   1.41923118E-03   5.59846312E-03               0.  -4.47134674E-03
               94                3   3.13015282E-03   7.06548570E-03               0.  -3.56339966E-03
               94                4   2.40752357E-03   7.26445671E-03               0.  -3.81702138E-03
               95                1   1.67102413E-03   3.25051579E-03               0.  -3.37983551E-03
               95                2  -338.259473E-06   2.57759588E-03               0.  -3.09355860E-03
               95                3   2.56318878E-03   3.22673842E-03               0.  -2.66421470E-03
               95                4   644.279411E-06   2.53750314E-03               0.  -2.27001356E-03
               96                1   4.90075909E-03   16.9683490E-03               0.   7.28517491E-03
               96                2   6.41076081E-03   15.3858587E-03               0.   7.83637725E-03
               96                3   3.07300081E-03   14.0830595E-03               0.   6.12769835E-03
               96                4   4.48000478E-03   12.8533458E-03               0.   6.66624820E-03
               97                1   2.85101379E-03   15.9023665E-03               0.   3.85319768E-03
               97                2   2.35664682E-03   14.4619998E-03               0.   4.62963711E-03
               97                3   2.44368822E-03   14.4701600E-03               0.   3.59120895E-03
               97                4   1.99474697E-03   13.1487595E-03               0.   4.25428990E-03
               98                1   2.73311441E-03   14.0455021E-03               0.   3.40249506E-03
               98                2   1.70812500E-03   13.1038297E-03               0.   3.93743953E-03
               98                3   2.80715222E-03   13.5657424E-03               0.   3.48841934E-03
               98                4   1.93809578E-03   12.6835508E-03               0.   3.96106811E-03
               99                1   2.04626075E-03   11.1451466E-03               0.   4.56335070E-03
               99                2   2.59574852E-03   11.9315498E-03               0.   4.95543191E-03
               99                3   2.15180777E-03   10.1384781E-03               0.   4.78195585E-03
               99                4   2.63969740E-03   10.6636956E-03               0.   5.15186228E-03
              100                1   3.70685663E-03   8.07608757E-03               0.   5.64543856E-03
              100                2   4.72336868E-03   8.92675202E-03               0.   6.14159647E-03
              100                3   4.34348267E-03   7.34367501E-03               0.   5.47909318E-03
              100                4   5.48467459E-03   8.09777249E-03               0.   5.96041046E-03
              101                1   2.91003170E-03   2.67965510E-03               0.   2.40438199E-03
              101                2   2.04272848E-03   2.17047473E-03               0.   3.08885518E-03
              101                3   4.12623445E-03   2.98117311E-03               0.   2.50397553E-03
              101                4   3.34937475E-03   2.52540642E-03               0.   3.11555550E-03
              102                1   720.903161E-06   219.554538E-06               0.   110.727269E-06
              102                2   39.8556513E-06   17.4266770E-06               0.   1.54021836E-03
              102                3   4.13351459E-03   1.24375767E-03               0.   244.288531E-06
              102                4   3.20251775E-03   966.217893E-06               0.   1.57112593E-03
              103                1   4.60175285E-03   7.01591326E-03               0.   2.95435125E-03
              103                2   3.18462797E-03   4.07921616E-03               0.   3.85688315E-03
              103                3   5.44078834E-03   6.69846777E-03               0.   2.40111025E-03
              103                4   4.24789777E-03   4.07110481E-03               0.   3.15912021E-03
              104                1   5.28333616E-03   2.52244435E-03               0.   1.10024726E-03
              104                2   4.66167554E-03   1.65785139E-03               0.   1.69405469E-03
              104                3   6.47267094E-03   2.83598877E-03               0.   924.313325E-06
              104                4   5.90079557E-03   2.01683887E-03               0.   1.48735766E-03
              105                1   6.67038234E-03   2.50059669E-03               0.   1.29374361E-03
              105                2   7.57259736E-03   2.80273915E-03               0.   827.015960E-06
              105                3   7.28055509E-03   3.91258672E-03               0.   866.391347E-06
              105                4   8.15394986E-03   4.27918043E-03               0.   407.930638E-06
              106                1   7.98135344E-03   2.82330206E-03               0.   593.057484E-06
              106                2   8.36409070E-03   2.97478726E-03               0.   135.576774E-06
              106                3   8.36693402E-03   4.00200440E-03               0.   433.036446E-06
              106                4   8.75291880E-03   4.23731608E-03               0.  -3.97716030E-06
              107                1   4.51531075E-03   4.09631012E-03               0.   3.07264994E-03
              107                2   6.07672893E-03   5.14879171E-03               0.   1.62354053E-03
              107                3   5.90423727E-03   7.69265415E-03               0.   2.30386201E-03
              107                4   7.45030725E-03   9.05747246E-03               0.   932.712690E-06
              108                1   6.46225270E-03   4.32928884E-03               0.   1.24357373E-03
              108                2   7.43239420E-03   5.04683796E-03               0.   180.272618E-06
              108                3   7.23528676E-03   6.71668211E-03               0.   929.931644E-06
              108                4   8.21340270E-03   7.59007130E-03               0.  -97.3655042E-06
              109                1   6.48850948E-03   8.73774569E-03               0.   50.3898627E-06
              109                2   7.39140250E-03   11.7842583E-03               0.  -88.3644097E-06
              109                3   5.65438671E-03   7.62589183E-03               0.   1.33561180E-03
              109                4   6.46769069E-03   10.4647502E-03               0.   1.27321156E-03
              110                1   5.12540434E-03   13.4374416E-03               0.   230.453996E-06
              110                2   6.41638972E-03   17.7892894E-03               0.   130.514876E-06
              110                3   4.18279925E-03   11.7680356E-03               0.   1.94478210E-03
              110                4   5.40038152E-03   16.0170831E-03               0.   2.00305902E-03
              111                1   1.85586466E-03   20.0313739E-03               0.   919.233426E-06
              111                2   3.99123691E-03   27.0935949E-03               0.   1.19333109E-03
              111                3   1.81041029E-03   18.1913730E-03               0.   3.42955394E-03
              111                4   4.19034204E-03   25.8775949E-03               0.   4.01136838E-03
              112                1   5.32737467E-03   9.89374239E-03               0.   1.71131850E-03
              112                2   6.17148448E-03   13.4317195E-03               0.   1.46960525E-03
              112                3   3.36937699E-03   8.05158913E-03               0.   3.34932213E-03
              112                4   3.91819794E-03   11.1013940E-03               0.   3.31602572E-03
              113                1   4.25281469E-03   14.7946132E-03               0.   2.15286086E-03
              113                2   5.16645145E-03   18.0155914E-03               0.   2.33812071E-03
              113                3   3.49245616E-03   13.1167043E-03               0.   3.50552960E-03
              113                4   4.30659857E-03   16.1130615E-03               0.   3.85222048E-03
              114                1   2.43487163E-03   18.6525118E-03               0.   4.48687747E-03
              114                2   4.56139306E-03   24.3450906E-03               0.   5.61853219E-03
              114                3   3.70174181E-03   16.6228376E-03               0.   6.34617917E-03
              114                4   6.04087953E-03   22.1470464E-03               0.   7.75224576E-03
              115                1   5.40800951E-03   17.5790600E-03               0.   7.86696095E-03
              115                2   7.49605754E-03   15.5416140E-03               0.   8.48709513E-03
              115                3   3.48831341E-03   14.4751575E-03               0.   6.63081184E-03
              115                4   5.33623062E-03   12.7666015E-03               0.   7.19255349E-03
              116                1   3.22562992E-03   15.9204043E-03               0.   4.68210550E-03
              116                2   3.39683075E-03   14.5187676E-03               0.   5.22676529E-03
              116                3   2.65695713E-03   14.5795625E-03               0.   4.33734525E-03
              116                4   2.72272760E-03   13.1950434E-03               0.   4.75284690E-03
              117                1   2.03384832E-03   12.9281515E-03               0.   4.65547759E-03
              117                2   1.71447801E-03   12.9039716E-03               0.   4.59065055E-03
              117                3   1.55007164E-03   12.6667237E-03               0.   4.85886168E-03
              117                4   1.21209037E-03   12.6096392E-03               0.   4.83256485E-03
              118                1   1.87113881E-03   11.7858527E-03               0.   4.66437638E-03
              118                2   1.85740751E-03   12.4574434E-03               0.   4.88764793E-03
              118                3   1.25895592E-03   10.4968259E-03               0.   5.09337941E-03
              118                4   1.15785270E-03   10.9610520E-03               0.   5.37044508E-03
              119                1   2.87429569E-03   8.26285221E-03               0.   5.19305095E-03
              119                2   3.71529465E-03   9.07147303E-03               0.   5.63757634E-03
              119                3   3.20990081E-03   7.57783046E-03               0.   5.10912668E-03
              119                4   4.14905418E-03   8.32058210E-03               0.   5.56405727E-03
              120                1   642.219093E-06   2.57754163E-03               0.   2.28599180E-03
              120                2  -319.534156E-06   2.63368338E-03               0.   3.09689832E-03
              120                3   2.55027087E-03   3.26926191E-03               0.   2.68593174E-03
              120                4   1.68348278E-03   3.30934743E-03               0.   3.39120743E-03
              121                1  -2.19135615E-03   100.977122E-06               0.  -200.135881E-06
              121                2  -2.83013354E-03   381.890713E-06               0.   1.33751379E-03
              121                3   2.01515900E-03   1.43226376E-03               0.   199.329079E-06
              121                4   1.05485425E-03   1.56293728E-03               0.   1.54570770E-03
              122                1   2.42581824E-03   7.29141897E-03               0.   3.83486040E-03
              122                2   1.42799702E-03   5.57685271E-03               0.   4.49402910E-03
              122                3   3.13043664E-03   7.08508445E-03               0.   3.57136410E-03
              122                4   2.24348740E-03   5.55791520E-03               0.   4.15758044E-03
              123                1   3.37707554E-03   3.62948119E-03               0.   1.21263275E-03
              123                2   2.85796821E-03   3.15091270E-03               0.   1.71124202E-03
              123                3   4.44284035E-03   3.91147565E-03               0.   1.16447685E-03
              123                4   3.94793414E-03   3.46779451E-03               0.   1.62212714E-03
              124                1   4.03361255E-03   10.0402609E-03               0.   3.26067838E-03
              124                2   2.84297206E-03   7.61565519E-03               0.   4.02050093E-03
              124                3   4.71747667E-03   9.74041596E-03               0.   2.81719468E-03
              124                4   3.71844345E-03   7.56840641E-03               0.   3.45397810E-03
              125                1   5.11087617E-03   6.17077015E-03               0.   1.25452096E-03
              125                2   4.83944174E-03   5.48058609E-03               0.   1.40682445E-03
              125                3   5.26575418E-03   6.17114687E-03               0.   1.08035316E-03
              125                4   5.01732156E-03   5.51982131E-03               0.   1.21539249E-03
              126                1   5.35429921E-03   6.98878197E-03               0.   985.309249E-06
              126                2   5.01820119E-03   6.90882746E-03               0.   673.298724E-06
              126                3   5.55742532E-03   7.93443806E-03               0.   1.03358831E-03
              126                4   5.26040001E-03   7.91248400E-03               0.   750.418403E-06
              127                1   4.79212683E-03   8.52632336E-03               0.   565.572234E-06
              127                2   3.05223558E-03   8.02265387E-03               0.   352.343253E-06
              127                3   4.79774037E-03   9.10618249E-03               0.   1.12760125E-03
              127                4   3.19945393E-03   8.68488848E-03               0.   972.380163E-06
              128                1   3.83492722E-03   8.24115891E-03               0.   3.43153183E-03
              128                2   4.49574180E-03   8.92523210E-03               0.   2.21102242E-03
              128                3   4.91075031E-03   11.4264460E-03               0.   2.95552774E-03
              128                4   5.61337220E-03   12.3917609E-03               0.   1.83065468E-03
              129                1   4.26797150E-03   9.57978982E-03               0.   2.36643176E-03
              129                2   3.29272868E-03   9.62640624E-03               0.   1.58184406E-03
              129                3   4.80041467E-03   11.6226263E-03               0.   2.62432871E-03
              129                4   3.92591488E-03   11.8174022E-03               0.   1.90907228E-03
              130                1   4.13732370E-03   13.4489657E-03               0.   2.24581943E-03
              130                2   5.10146189E-03   16.6461281E-03               0.   2.35780817E-03
              130                3   4.14852705E-03   12.6179894E-03               0.   3.51345236E-03
              130                4   5.09612076E-03   15.7211535E-03               0.   3.68003361E-03
              131                1   5.02978172E-03   19.1693678E-03               0.   2.40937481E-03
              131                2   6.45924546E-03   24.0958333E-03               0.   1.74091395E-03
              131                3   2.12787976E-03   16.9845913E-03               0.   4.70897183E-03
              131                4   3.50044994E-03   22.2652555E-03               0.   4.12838068E-03
              132                1   3.98551067E-03   13.1503120E-03               0.   3.17673758E-03
              132                2   5.25217084E-03   17.4077097E-03               0.   3.38273402E-03
              132                3   3.42650781E-03   11.5578631E-03               0.   4.90068924E-03
              132                4   4.52991389E-03   15.3051279E-03               0.   5.29036345E-03
              133                1   2.14868644E-03   18.3364227E-03               0.   5.53089473E-03
              133                2   4.05074889E-03   23.4246459E-03               0.   6.61277352E-03
              133                3   4.04809834E-03   16.5800117E-03               0.   7.33434642E-03
              133                4   6.17005909E-03   21.4761924E-03               0.   8.62181373E-03
              134                1   5.48379403E-03   8.10035784E-03               0.  -5.95764071E-03
              134                2   4.72183153E-03   8.92332476E-03               0.  -6.13965979E-03
              134                3   4.34416998E-03   7.34796049E-03               0.  -5.47760213E-03
              134                4   3.70601751E-03   8.07485729E-03               0.  -5.64437872E-03
              135                1   2.64238147E-03   10.6799640E-03               0.  -5.14589436E-03
              135                2   2.59202975E-03   11.9306119E-03               0.  -4.95325867E-03
              135                3   2.15413189E-03   10.1562236E-03               0.  -4.77855746E-03
              135                4   2.04229960E-03   11.1482358E-03               0.  -4.56287106E-03
              136                1   1.93363463E-03   12.6840090E-03               0.  -3.96001572E-03
              136                2   1.70578272E-03   13.1177623E-03               0.  -3.93891474E-03
              136                3   2.80573638E-03   13.5749504E-03               0.  -3.48373898E-03
              136                4   2.73538195E-03   14.0659558E-03               0.  -3.39929573E-03
              137                1   1.99475675E-03   13.1629109E-03               0.  -4.26358730E-03
              137                2   2.35084700E-03   14.4528663E-03               0.  -4.63334145E-03
              137                3   2.44073663E-03   14.4771598E-03               0.  -3.59693891E-03
              137                4   2.84812064E-03   15.9077719E-03               0.  -3.85862635E-03
              138                1   4.44781920E-03   12.8167272E-03               0.  -6.63024187E-03
              138                2   6.41595013E-03   15.3923482E-03               0.  -7.82190263E-03
              138                3   3.04539967E-03   14.0780769E-03               0.  -6.10289909E-03
              138                4   4.89828410E-03   16.9884097E-03               0.  -7.27516459E-03
              139                1   6.03322219E-03   22.1290998E-03               0.  -7.73953088E-03
              139                2   4.56844643E-03   24.3061837E-03               0.  -5.61646931E-03
              139                3   3.68535751E-03   16.6022927E-03               0.  -6.32354850E-03
              139                4   2.42456608E-03   18.5936783E-03               0.  -4.47040051E-03
              140                1   4.21677809E-03   25.8751549E-03               0.  -4.02507046E-03
              140                2   3.99474986E-03   27.0813163E-03               0.  -1.19461247E-03
              140                3   1.83092197E-03   18.1862302E-03               0.  -3.42294131E-03
              140                4   1.84939324E-03   19.9900046E-03               0.  -910.323346E-06
              141                1   4.28928155E-03   16.0826389E-03               0.  -3.83874122E-03
              141                2   5.15831308E-03   17.9746877E-03               0.  -2.32388685E-03
              141                3   3.49245709E-03   13.1402994E-03               0.  -3.50630982E-03
              141                4   4.26663039E-03   14.8285264E-03               0.  -2.15407507E-03
              142                1   5.39404294E-03   16.0127841E-03               0.  -2.00403598E-03
              142                2   6.41260296E-03   17.7760627E-03               0.  -127.354317E-06
              142                3   4.17350279E-03   11.7599675E-03               0.  -1.95574178E-03
              142                4   5.13231149E-03   13.4622203E-03               0.  -230.383768E-06
              143                1   3.91710689E-03   11.1403251E-03               0.  -3.31724808E-03
              143                2   6.16958039E-03   13.4824989E-03               0.  -1.47016847E-03
              143                3   3.36558395E-03   8.08270648E-03               0.  -3.34991561E-03
              143                4   5.32018300E-03   9.92363691E-03               0.  -1.71184784E-03
              144                1   6.45623822E-03   10.4654552E-03               0.  -1.27106917E-03
              144                2   7.39555759E-03   11.8096396E-03               0.   89.5485209E-06
              144                3   5.64462878E-03   7.62992958E-03               0.  -1.33611902E-03
              144                4   6.49273349E-03   8.76262598E-03               0.  -52.2230293E-06
              145                1   8.21767468E-03   7.61231780E-03               0.   99.2420100E-06
              145                2   7.43293250E-03   5.05644456E-03               0.  -180.516450E-06
              145                3   7.23140920E-03   6.72370149E-03               0.  -930.638926E-06
              145                4   6.45694556E-03   4.33003716E-03               0.  -1.24497351E-03
              146                1   8.75419285E-03   4.24343208E-03               0.   5.01420664E-06
              146                2   8.36397242E-03   2.97625130E-03               0.  -135.092778E-06
              146                3   8.36654939E-03   4.00576135E-03               0.  -433.148118E-06
              146                4   7.98008498E-03   2.82387249E-03               0.  -593.455217E-06
              147                1   7.44757475E-03   9.07667447E-03               0.  -934.301177E-06
              147                2   6.07265346E-03   5.15664229E-03               0.  -1.62367139E-03
              147                3   5.90577582E-03   7.71647738E-03               0.  -2.30475958E-03
              147                4   4.51460294E-03   4.10745805E-03               0.  -3.07322084E-03
              148                1   8.15209001E-03   4.27932432E-03               0.  -409.017171E-06
              148                2   7.57144857E-03   2.80270842E-03               0.  -827.520445E-06
              148                3   7.28051923E-03   3.91394692E-03               0.  -866.865215E-06
              148                4   6.67070411E-03   2.50120042E-03               0.  -1.29390566E-03
              149                1   5.90176508E-03   2.01789360E-03               0.  -1.48757244E-03
              149                2   4.66330536E-03   1.65921112E-03               0.  -1.69474841E-03
              149                3   6.47346163E-03   2.83886516E-03               0.  -924.515829E-06
              149                4   5.28514944E-03   2.52598780E-03               0.  -1.10073364E-03
              150                1   3.20421671E-03   966.460328E-06               0.  -1.57219812E-03
              150                2   42.4147256E-06   17.9074468E-06               0.  -1.54087669E-03
              150                3   4.13356815E-03   1.24266942E-03               0.  -246.003940E-06
              150                4   722.852943E-06   218.949324E-06               0.  -111.561647E-06
              151                1   4.24525375E-03   4.07804176E-03               0.  -3.16123478E-03
              151                2   3.18901101E-03   4.09017084E-03               0.  -3.85767431E-03
              151                3   5.43260714E-03   6.70025172E-03               0.  -2.40750541E-03
              151                4   4.60142130E-03   7.02318689E-03               0.  -2.95872334E-03
              152                1   3.35181854E-03   2.53055431E-03               0.  -3.11763864E-03
              152                2   2.04659998E-03   2.17566639E-03               0.  -3.08963633E-03
              152                3   4.12591174E-03   2.98214774E-03               0.  -2.50754715E-03
              152                4   2.91140773E-03   2.68040434E-03               0.  -2.40667444E-03


********************************************************************************
Field Output Report, written Tue Jun 03 12:18:09 2025

Source 1
---------

   ODB: C:/lnms/Vid/VF/LinearnaPolja/PoljeU2/PoljeU2.odb
   Step: loading
   Frame: Increment      5: Step Time =   0.5000

Loc 1 : Integration point values from source 1

Output sorted by column "Element Label".

Field Output reported at integration points for part: SPECIMEN-1

          Element              Int            S.S11            S.S22            S.S33            S.S12
            Label               Pt           @Loc 1           @Loc 1           @Loc 1           @Loc 1
-------------------------------------------------------------------------------------------------------
                1                1   6.84117619E-03   10.1652388E-03               0.  -7.44245108E-03
                1                2   5.87532064E-03   11.1903278E-03               0.  -7.66792102E-03
                1                3   5.41136740E-03   9.21761803E-03               0.  -6.83895219E-03
                1                4   4.60189767E-03   10.1235360E-03               0.  -7.04579335E-03
                2                1   3.29198409E-03   13.3505203E-03               0.  -6.40566973E-03
                2                2   3.22668790E-03   14.8910694E-03               0.  -6.16508815E-03
                2                3   2.68855249E-03   12.7001898E-03               0.  -5.95181622E-03
                2                4   2.54766643E-03   13.9217228E-03               0.  -5.68318507E-03
                3                1   2.41508265E-03   15.8258621E-03               0.  -4.93279472E-03
                3                2   2.14004493E-03   16.3723230E-03               0.  -4.90871258E-03
                3                3   3.49334278E-03   16.9337112E-03               0.  -4.34174715E-03
                3                4   3.41204274E-03   17.5500792E-03               0.  -4.23877453E-03
                4                1   2.50129844E-03   16.4398775E-03               0.  -5.31388121E-03
                4                2   2.95104343E-03   18.0462915E-03               0.  -5.77358063E-03
                4                3   3.04104970E-03   18.0601981E-03               0.  -4.48817061E-03
                4                4   3.55224172E-03   19.8387243E-03               0.  -4.81412094E-03
                5                1   5.52763743E-03   16.0499085E-03               0.  -8.26808996E-03
                5                2   7.97578227E-03   19.2693938E-03               0.  -9.75221861E-03
                5                3   3.76999867E-03   17.6096186E-03               0.  -7.60343065E-03
                5                4   6.07437501E-03   21.2432500E-03               0.  -9.06276982E-03
                6                1   7.46504171E-03   27.6278928E-03               0.  -9.62667353E-03
                6                2   5.64750610E-03   30.3083509E-03               0.  -6.98767323E-03
                6                3   4.55855066E-03   20.7634158E-03               0.  -7.87789095E-03
                6                4   2.99189100E-03   23.2192408E-03               0.  -5.57114044E-03
                7                1   5.20362984E-03   32.2467387E-03               0.  -4.99613723E-03
                7                2   4.93258564E-03   33.7355882E-03               0.  -1.49002264E-03
                7                3   2.24773563E-03   22.7142256E-03               0.  -4.25668666E-03
                7                4   2.27403990E-03   24.9474049E-03               0.  -1.13876211E-03
                8                1   5.33922995E-03   20.0850610E-03               0.  -4.80375718E-03
                8                2   6.40017167E-03   22.4260706E-03               0.  -2.91842129E-03
                8                3   4.33950033E-03   16.4131876E-03               0.  -4.38780198E-03
                8                4   5.28480066E-03   18.5038317E-03               0.  -2.70384946E-03
                9                1   6.67939149E-03   20.0026296E-03               0.  -2.50715716E-03
                9                2   7.94241205E-03   22.1936014E-03               0.  -169.598701E-06
                9                3   5.15688071E-03   14.7003671E-03               0.  -2.44769338E-03
                9                4   6.34671282E-03   16.8181658E-03               0.  -296.631100E-06
               10                1   4.87418892E-03   13.9237549E-03               0.  -4.14886419E-03
               10                2   7.66367977E-03   16.8267861E-03               0.  -1.85059127E-03
               10                3   4.18037828E-03   10.1094479E-03               0.  -4.18919651E-03
               10                4   6.60089403E-03   12.3920068E-03               0.  -2.14948040E-03
               11                1   8.01106542E-03   13.0841620E-03               0.  -1.59501529E-03
               11                2   9.17821657E-03   14.7585012E-03               0.   103.443381E-06
               11                3   6.99640717E-03   9.54154134E-03               0.  -1.67601637E-03
               11                4   8.05041194E-03   10.9531702E-03               0.  -72.2571640E-06
               12                1   10.2111362E-03   9.51704290E-03               0.   118.212956E-06
               12                2   9.22981557E-03   6.32104650E-03               0.  -229.525787E-06
               12                3   8.98502208E-03   8.40949547E-03               0.  -1.16880937E-03
               12                4   8.01643170E-03   5.41581400E-03               0.  -1.56065938E-03
               13                1   10.8898915E-03   5.30274119E-03               0.   2.95990344E-06
               13                2   10.3988647E-03   3.70772136E-03               0.  -171.063177E-06
               13                3   10.4084900E-03   5.00580622E-03               0.  -548.253069E-06
               13                4   9.92254261E-03   3.51820141E-03               0.  -748.037361E-06
               14                1   9.25635453E-03   11.3348123E-03               0.  -1.17964693E-03
               14                2   7.54171098E-03   6.44687004E-03               0.  -2.03783251E-03
               14                3   7.34238606E-03   9.64641199E-03               0.  -2.88743130E-03
               14                4   5.60697168E-03   5.14568621E-03               0.  -3.84585746E-03
               15                1   10.1434011E-03   5.34671918E-03               0.  -523.743045E-06
               15                2   9.41613317E-03   3.49281612E-03               0.  -1.04405102E-03
               15                3   9.06247366E-03   4.89267427E-03               0.  -1.09811465E-03
               15                4   8.29915795E-03   3.11907474E-03               0.  -1.62968319E-03
               16                1   7.34483125E-03   2.51736306E-03               0.  -1.87423720E-03
               16                2   5.80885215E-03   2.07326841E-03               0.  -2.13575340E-03
               16                3   8.05978477E-03   3.55168083E-03               0.  -1.17445516E-03
               16                4   6.58659963E-03   3.16532515E-03               0.  -1.39720459E-03
               17                1   3.99331842E-03   1.20741955E-03               0.  -1.98353804E-03
               17                2   50.3961637E-06   24.5695956E-06               0.  -1.94395101E-03
               17                3   5.15690818E-03   1.55421323E-03               0.  -330.755138E-06
               17                4   904.843851E-06   277.950312E-06               0.  -161.238568E-06
               18                1   5.27523924E-03   5.10899257E-03               0.  -3.95713188E-03
               18                2   3.96103086E-03   5.12980809E-03               0.  -4.82462719E-03
               18                3   6.75752433E-03   8.37742258E-03               0.  -3.01636965E-03
               18                4   5.72468946E-03   8.78509600E-03               0.  -3.70213180E-03
               19                1   4.18269215E-03   3.18374392E-03               0.  -3.90555337E-03
               19                2   2.57724221E-03   2.74917018E-03               0.  -3.87188629E-03
               19                3   5.14356932E-03   3.74937523E-03               0.  -3.15385312E-03
               19                4   3.65112443E-03   3.38144274E-03               0.  -3.03021423E-03
               20                1   5.21759503E-03   10.4141030E-03               0.  -6.95127388E-03
               20                2   4.65389155E-03   11.4124622E-03               0.  -7.04153720E-03
               20                3   3.99344275E-03   9.43711959E-03               0.  -6.35397248E-03
               20                4   3.56611703E-03   10.3543131E-03               0.  -6.46297308E-03
               21                1   1.47047162E-03   13.7027195E-03               0.  -6.69243187E-03
               21                2   2.33656075E-03   15.5661087E-03               0.  -6.09508995E-03
               21                3   1.59092154E-03   13.1175816E-03               0.  -6.34700758E-03
               21                4   2.34924420E-03   14.7113316E-03               0.  -5.81178674E-03
               22                1   1.51288789E-03   15.7663263E-03               0.  -6.00142498E-03
               22                2   2.14255322E-03   16.0919763E-03               0.  -5.70959691E-03
               22                3   1.94453844E-03   15.8530883E-03               0.  -6.04598736E-03
               22                4   2.55060382E-03   16.1459465E-03               0.  -5.80211729E-03
               23                1   3.40736681E-03   16.4827462E-03               0.  -5.93196554E-03
               23                2   4.24710428E-03   18.1337837E-03               0.  -6.52094698E-03
               23                3   3.31650954E-03   18.1984827E-03               0.  -5.40987169E-03
               23                4   4.02468722E-03   19.8720656E-03               0.  -5.83795784E-03
               24                1   6.63125794E-03   15.9930885E-03               0.  -8.97477847E-03
               24                2   9.30043776E-03   19.4418952E-03               0.  -10.5774468E-03
               24                3   4.32892935E-03   18.0989113E-03               0.  -8.26598704E-03
               24                4   6.70168595E-03   21.9553299E-03               0.  -9.79603827E-03
               25                1   7.63196871E-03   26.8091317E-03               0.  -10.7261920E-03
               25                2   5.00789238E-03   29.2149223E-03               0.  -8.23041983E-03
               25                3   5.00878505E-03   20.7320694E-03               0.  -9.13777575E-03
               25                4   2.65462301E-03   22.9052212E-03               0.  -6.89413864E-03
               26                1   4.33898438E-03   27.7859271E-03               0.  -5.10563562E-03
               26                2   8.05578101E-03   30.0716385E-03               0.  -2.13536690E-03
               26                3   2.63061770E-03   21.2112013E-03               0.  -5.84264053E-03
               26                4   6.27840962E-03   23.9436924E-03               0.  -2.97598843E-03
               27                1   5.62763633E-03   19.1390850E-03               0.  -6.60084281E-03
               27                2   6.53292332E-03   21.7582639E-03               0.  -4.22108499E-03
               27                3   4.24939580E-03   14.4546852E-03               0.  -6.12265011E-03
               27                4   4.95262444E-03   16.4460149E-03               0.  -3.96906072E-03
               28                1   6.33163750E-03   19.6399949E-03               0.  -4.56501078E-03
               28                2   6.36720331E-03   20.8024662E-03               0.  -2.91677751E-03
               28                3   5.15243364E-03   15.7726146E-03               0.  -4.36626980E-03
               28                4   5.16640628E-03   16.8192815E-03               0.  -2.78472551E-03
               29                1   4.90535283E-03   14.7862090E-03               0.  -2.36882013E-03
               29                2   4.11446765E-03   12.0516196E-03               0.  -1.96588598E-03
               29                3   5.97730698E-03   14.5359309E-03               0.  -3.26090562E-03
               29                4   5.31160133E-03   11.9853066E-03               0.  -2.94496468E-03
               30                1   4.00089985E-03   10.8769173E-03               0.  -1.20820384E-03
               30                2   3.81541089E-03   10.0493981E-03               0.  -438.040937E-06
               30                3   5.98321250E-03   11.3984719E-03               0.  -1.40161114E-03
               30                4   5.97172324E-03   10.6733618E-03               0.  -703.910773E-06
               31                1   6.99073635E-03   15.5069400E-03               0.  -2.28611939E-03
               31                2   5.59726683E-03   11.1841327E-03               0.  -2.76020239E-03
               31                3   6.12127082E-03   14.3047664E-03               0.  -3.68430116E-03
               31                4   4.77888156E-03   10.3299934E-03               0.  -4.27951990E-03
               32                1   6.55591767E-03   9.92339384E-03               0.  -936.240831E-06
               32                2   6.25078613E-03   8.66278633E-03               0.  -837.778498E-06
               32                3   6.92868093E-03   9.94999241E-03               0.  -1.29069225E-03
               32                4   6.67195534E-03   8.76294076E-03               0.  -1.22772425E-03
               33                1   6.25450443E-03   6.92928722E-03               0.  -1.51307811E-03
               33                2   6.04757899E-03   6.88526453E-03               0.  -1.75440777E-03
               33                3   6.56152517E-03   7.75007810E-03               0.  -1.35092170E-03
               33                4   6.38219714E-03   7.75460759E-03               0.  -1.57113082E-03
               34                1   4.92828991E-03   4.35031438E-03               0.  -2.02631741E-03
               34                2   3.57163069E-03   3.95621127E-03               0.  -2.13145651E-03
               34                3   5.52517734E-03   4.87828720E-03               0.  -1.46723515E-03
               34                4   4.21156222E-03   4.53108363E-03               0.  -1.51892402E-03
               35                1   1.31976733E-03   1.96044054E-03               0.  -1.92486262E-03
               35                2  -3.52247641E-03   488.916528E-06               0.  -1.66883273E-03
               35                3   2.54902989E-03   1.81175128E-03               0.  -243.841205E-06
               35                4  -2.71207932E-03   149.602143E-06               0.   246.801006E-06
               36                1   4.64008376E-03   9.49779060E-03               0.  -4.31213016E-03
               36                2   3.56236729E-03   9.56053566E-03               0.  -5.01287868E-03
               36                3   5.88285364E-03   12.1989278E-03               0.  -3.52071645E-03
               36                4   5.03963232E-03   12.5759272E-03               0.  -4.07064799E-03
               37                1   2.81033176E-03   7.00340513E-03               0.  -5.17354812E-03
               37                2   1.76590460E-03   7.02667795E-03               0.  -5.58051234E-03
               37                3   3.90102924E-03   8.84995703E-03               0.  -4.44981735E-03
               37                4   3.00061167E-03   9.09976847E-03               0.  -4.76368796E-03
               38                1   2.09318497E-03   4.08992684E-03               0.  -4.22973558E-03
               38                2  -390.596426E-06   3.25691770E-03               0.  -3.87298828E-03
               38                3   3.20442906E-03   4.06247424E-03               0.  -3.34672839E-03
               38                4   834.214443E-06   3.20944283E-03               0.  -2.85635702E-03
               39                1   6.70401892E-03   21.9544582E-03               0.   9.79760848E-03
               39                2   9.30430554E-03   19.4402970E-03               0.   10.5779367E-03
               39                3   4.32665227E-03   18.0955939E-03               0.   8.26508738E-03
               39                4   6.62954757E-03   15.9860421E-03               0.   8.97220243E-03
               40                1   4.01814096E-03   19.8633615E-03               0.   5.84173435E-03
               40                2   4.24615340E-03   18.1302931E-03               0.   6.51880866E-03
               40                3   3.30808712E-03   18.1928240E-03               0.   5.41143678E-03
               40                4   3.40245687E-03   16.4785106E-03               0.   5.92784444E-03
               41                1   2.54646735E-03   16.1445606E-03               0.   5.80122368E-03
               41                2   2.14211689E-03   16.1063503E-03               0.   5.71542233E-03
               41                3   1.93877402E-03   15.8280861E-03               0.   6.05284842E-03
               41                4   1.51147426E-03   15.7514196E-03               0.   6.01558946E-03
               42                1   2.33588996E-03   14.7242015E-03               0.   5.80579508E-03
               42                2   2.31536129E-03   15.5559648E-03               0.   6.07879413E-03
               42                3   1.57335110E-03   13.1321214E-03               0.   6.33996353E-03
               42                4   1.44404103E-03   13.7079814E-03               0.   6.68017287E-03
               43                1   3.57349333E-03   10.3663914E-03               0.   6.48449780E-03
               43                2   4.63237567E-03   11.3861291E-03               0.   7.04446342E-03
               43                3   4.00412176E-03   9.51084401E-03               0.   6.37980131E-03
               43                4   5.18770982E-03   10.4491347E-03               0.   6.95309881E-03
               44                1   831.419427E-06   3.25944438E-03               0.   2.87606614E-03
               44                2  -367.474102E-06   3.32689984E-03               0.   3.87702929E-03
               44                3   3.18814581E-03   4.11560014E-03               0.   3.37351649E-03
               44                4   2.10845424E-03   4.16333275E-03               0.   4.24371287E-03
               45                1  -2.69972812E-03   139.649172E-06               0.  -239.293062E-06
               45                2  -3.49887554E-03   492.115912E-06               0.   1.67326361E-03
               45                3   2.53146468E-03   1.79674360E-03               0.   261.759735E-06
               45                4   1.33374415E-03   1.96174113E-03               0.   1.93455443E-03
               46                1   3.02329077E-03   9.13346466E-03               0.   4.78580454E-03
               46                2   1.77661458E-03   6.99986285E-03               0.   5.60881756E-03
               46                3   3.90143530E-03   8.87446664E-03               0.   4.45962977E-03
               46                4   2.79363710E-03   6.97403215E-03               0.   5.19135734E-03
               47                1   4.22276650E-03   4.55977814E-03               0.   1.52198470E-03
               47                2   3.57908453E-03   3.96397430E-03               0.   2.13834969E-03
               47                3   5.53861121E-03   4.90721595E-03               0.   1.46163278E-03
               47                4   4.92522540E-03   4.35498869E-03               0.   2.02725548E-03
               48                1   5.02189295E-03   12.5484774E-03               0.   4.07097861E-03
               48                2   3.54157458E-03   9.54153202E-03               0.   5.01597440E-03
               48                3   5.87076973E-03   12.1742273E-03               0.   3.52220866E-03
               48                4   4.62906156E-03   9.48026963E-03               0.   4.31401515E-03
               49                1   6.37133000E-03   7.73612410E-03               0.   1.56814407E-03
               49                2   6.03547925E-03   6.87759183E-03               0.   1.75550696E-03
               49                3   6.55880244E-03   7.73473782E-03               0.   1.35118491E-03
               49                4   6.25123596E-03   6.92445273E-03               0.   1.51713914E-03
               50                1   6.67199586E-03   8.76104739E-03               0.   1.22847769E-03
               50                2   6.25332352E-03   8.66121240E-03               0.   839.783635E-06
               50                3   6.92487368E-03   9.93875042E-03               0.   1.28845894E-03
               50                4   6.55489694E-03   9.91122797E-03               0.   935.781281E-06
               51                1   5.97444177E-03   10.6743006E-03               0.   704.014208E-06
               51                2   3.81589727E-03   10.0495694E-03               0.   437.896408E-06
               51                3   5.98280411E-03   11.3977985E-03               0.   1.40099716E-03
               51                4   4.00019577E-03   10.8757038E-03               0.   1.20727182E-03
               52                1   4.77580167E-03   10.3239100E-03               0.   4.28104820E-03
               52                2   5.59528731E-03   11.1724315E-03               0.   2.75966735E-03
               52                3   6.11612853E-03   14.2926630E-03               0.   3.68746184E-03
               52                4   6.98742503E-03   15.4913925E-03               0.   2.28638039E-03
               53                1   5.31543605E-03   11.9860871E-03               0.   2.94422708E-03
               53                2   4.11494914E-03   12.0494207E-03               0.   1.96466804E-03
               53                3   5.98086882E-03   14.5342909E-03               0.   3.26101948E-03
               53                4   4.90543433E-03   14.7822490E-03               0.   2.36822967E-03
               54                1   5.16559649E-03   16.8149564E-03               0.   2.78453901E-03
               54                2   6.36651414E-03   20.7983572E-03               0.   2.91714328E-03
               54                3   5.15355868E-03   15.7706328E-03               0.   4.36680811E-03
               54                4   6.33273646E-03   19.6373072E-03               0.   4.56651067E-03
               55                1   6.27760030E-03   23.9400752E-03               0.   2.97625037E-03
               55                2   8.05482920E-03   30.0685279E-03               0.   2.13633291E-03
               55                3   2.63228524E-03   21.2101601E-03               0.   5.84231503E-03
               55                4   4.33892291E-03   27.7832057E-03               0.   5.10728126E-03
               56                1   4.94961720E-03   16.4360199E-03               0.   3.96609539E-03
               56                2   6.52891770E-03   21.7433292E-03               0.   4.22155578E-03
               56                3   4.25450364E-03   14.4570889E-03               0.   6.11698814E-03
               56                4   5.63068455E-03   19.1317610E-03               0.   6.59981184E-03
               57                1   2.65313173E-03   22.8980947E-03               0.   6.89130882E-03
               57                2   5.00885211E-03   29.2080417E-03               0.   8.22997931E-03
               57                3   5.00905700E-03   20.7293108E-03               0.   9.13386606E-03
               57                4   7.63479061E-03   26.8046372E-03               0.   10.7247494E-03
               58                1   6.07722998E-03   21.2186072E-03               0.   9.07516945E-03
               58                2   7.96927977E-03   19.2616470E-03               0.   9.77012701E-03
               58                3   3.80397192E-03   17.6161062E-03               0.   7.63417687E-03
               58                4   5.56744030E-03   16.0958972E-03               0.   8.31274409E-03
               59                1   3.55583616E-03   19.8322423E-03               0.   4.80755977E-03
               59                2   2.95852381E-03   18.0577412E-03               0.   5.76920900E-03
               59                3   3.04451981E-03   18.0514790E-03               0.   4.48111817E-03
               59                4   2.50121905E-03   16.4220985E-03               0.   5.30242547E-03
               60                1   3.40922829E-03   17.5247155E-03               0.   4.24273266E-03
               60                2   2.14282935E-03   16.3549017E-03               0.   4.90683224E-03
               60                3   3.49511579E-03   16.9223361E-03               0.   4.34754090E-03
               60                4   2.42057000E-03   15.8252623E-03               0.   4.93406132E-03
               61                1   2.55256752E-03   13.9178354E-03               0.   5.68377320E-03
               61                2   3.23130609E-03   14.8922345E-03               0.   6.16778107E-03
               61                3   2.68565165E-03   12.6781240E-03               0.   5.95606398E-03
               61                4   3.28864902E-03   13.3303469E-03               0.   6.41311333E-03
               62                1   4.60294634E-03   10.1250727E-03               0.   7.04711955E-03
               62                2   5.87721122E-03   11.1945840E-03               0.   7.67031824E-03
               62                3   5.41050918E-03   9.21231601E-03               0.   6.84082182E-03
               62                4   6.84225606E-03   10.1620527E-03               0.   7.44589930E-03
               63                1   3.64943943E-03   3.38049303E-03               0.   3.02736810E-03
               63                2   2.57245218E-03   2.74269748E-03               0.   3.87091981E-03
               63                3   5.14398655E-03   3.74813704E-03               0.   3.14942421E-03
               63                4   4.17967374E-03   3.17731895E-03               0.   3.90297407E-03
               64                1   902.409200E-06   278.686435E-06               0.   160.199124E-06
               64                2   47.2048159E-06   23.9644778E-06               0.   1.94313400E-03
               64                3   5.15684625E-03   1.55555434E-03               0.   328.622322E-06
               64                4   3.99120757E-03   1.20711385E-03               0.   1.98220834E-03
               65                1   5.72512485E-03   8.77600163E-03               0.   3.69671267E-03
               65                2   3.95558262E-03   5.11614839E-03               0.   4.82366607E-03
               65                3   6.76773256E-03   8.37516040E-03               0.   3.00843804E-03
               65                4   5.27854543E-03   5.10033732E-03               0.   3.95452883E-03
               66                1   6.58434629E-03   3.16090230E-03               0.   1.39660272E-03
               66                2   5.80683071E-03   2.07157223E-03               0.   2.13489612E-03
               66                3   8.05880874E-03   3.54809524E-03               0.   1.17420638E-03
               66                4   7.34363589E-03   2.51605012E-03               0.   1.87397643E-03
               67                1   8.29877052E-03   3.11831827E-03               0.   1.62948808E-03
               67                2   9.41758137E-03   3.49285291E-03               0.   1.04342937E-03
               67                3   9.06252582E-03   4.89095738E-03               0.   1.09752617E-03
               67                4   10.1457285E-03   5.34652406E-03               0.   522.390706E-06
               68                1   9.92413703E-03   3.51749547E-03               0.   747.546321E-06
               68                2   10.3990138E-03   3.70589225E-03               0.   171.667300E-06
               68                3   10.4089780E-03   5.00112353E-03               0.   548.119075E-06
               68                4   10.8882980E-03   5.29509597E-03               0.  -1.66499103E-06
               69                1   5.60786622E-03   5.13176061E-03               0.   3.84517084E-03
               69                2   7.54682068E-03   6.43707346E-03               0.   2.03768373E-03
               69                3   7.34048290E-03   9.61670931E-03               0.   2.88633443E-03
               69                4   9.25978739E-03   11.3108894E-03               0.   1.17767486E-03
               70                1   8.02308600E-03   5.41488361E-03               0.   1.55891781E-03
               70                2   9.22913942E-03   6.30903430E-03               0.   229.216530E-06
               70                3   8.98988172E-03   8.40073638E-03               0.   1.16793648E-03
               70                4   10.2057941E-03   9.48925409E-03               0.  -115.874951E-06
               71                1   8.04514717E-03   10.9220948E-03               0.   69.9662196E-06
               71                2   9.17303748E-03   14.7268111E-03               0.  -101.957317E-06
               71                3   7.00865220E-03   9.53652337E-03               0.   1.67538784E-03
               71                4   8.02541897E-03   13.0832978E-03               0.   1.59770250E-03
               72                1   6.33807387E-03   16.7872440E-03               0.   296.697195E-06
               72                2   7.94711988E-03   22.2100783E-03               0.   173.492153E-06
               72                3   5.16832480E-03   14.7103360E-03               0.   2.43403646E-03
               72                4   6.68716198E-03   20.0079493E-03               0.   2.50591827E-03
               73                1   2.28210515E-03   24.9988753E-03               0.   1.14978489E-03
               73                2   4.92820609E-03   33.7507501E-03               0.   1.48841226E-03
               73                3   2.22233031E-03   22.7207951E-03               0.   4.26477799E-03
               73                4   5.17087476E-03   32.2497003E-03               0.   4.97905165E-03
               74                1   6.60988642E-03   12.3547604E-03               0.   2.14881753E-03
               74                2   7.66603556E-03   16.7634748E-03               0.   1.84985157E-03
               74                3   4.18505864E-03   10.0706639E-03               0.   4.18844167E-03
               74                4   4.87546436E-03   13.8751855E-03               0.   4.14730236E-03
               75                1   5.26757585E-03   18.4615962E-03               0.   2.70219590E-03
               75                2   6.41043903E-03   22.4771351E-03               0.   2.93600326E-03
               75                3   4.33928054E-03   16.3837560E-03               0.   4.38674306E-03
               75                4   5.36066107E-03   20.1230310E-03               0.   4.82042087E-03
               76                1   3.00448062E-03   23.2926682E-03               0.   5.59154851E-03
               76                2   5.63841360E-03   30.3565953E-03               0.   6.99013192E-03
               76                3   4.57855547E-03   20.7895003E-03               0.   7.90592376E-03
               76                4   7.47404853E-03   27.6503265E-03               0.   9.64227971E-03
               77                1   5.21759503E-03   10.4141030E-03               0.  -6.95127388E-03
               77                2   4.65389155E-03   11.4124622E-03               0.  -7.04153720E-03
               77                3   3.99344275E-03   9.43711959E-03               0.  -6.35397248E-03
               77                4   3.56611703E-03   10.3543131E-03               0.  -6.46297308E-03
               78                1   1.47047162E-03   13.7027195E-03               0.  -6.69243187E-03
               78                2   2.33656075E-03   15.5661087E-03               0.  -6.09508995E-03
               78                3   1.59092154E-03   13.1175816E-03               0.  -6.34700758E-03
               78                4   2.34924420E-03   14.7113316E-03               0.  -5.81178674E-03
               79                1   1.51288789E-03   15.7663263E-03               0.  -6.00142498E-03
               79                2   2.14255322E-03   16.0919763E-03               0.  -5.70959691E-03
               79                3   1.94453844E-03   15.8530883E-03               0.  -6.04598736E-03
               79                4   2.55060382E-03   16.1459465E-03               0.  -5.80211729E-03
               80                1   3.40736681E-03   16.4827462E-03               0.  -5.93196554E-03
               80                2   4.24710428E-03   18.1337837E-03               0.  -6.52094698E-03
               80                3   3.31650954E-03   18.1984827E-03               0.  -5.40987169E-03
               80                4   4.02468722E-03   19.8720656E-03               0.  -5.83795784E-03
               81                1   6.63125794E-03   15.9930885E-03               0.  -8.97477847E-03
               81                2   9.30043776E-03   19.4418952E-03               0.  -10.5774468E-03
               81                3   4.32892935E-03   18.0989113E-03               0.  -8.26598704E-03
               81                4   6.70168595E-03   21.9553299E-03               0.  -9.79603827E-03
               82                1   7.63196871E-03   26.8091317E-03               0.  -10.7261920E-03
               82                2   5.00789238E-03   29.2149223E-03               0.  -8.23041983E-03
               82                3   5.00878505E-03   20.7320694E-03               0.  -9.13777575E-03
               82                4   2.65462301E-03   22.9052212E-03               0.  -6.89413864E-03
               83                1   4.33898438E-03   27.7859271E-03               0.  -5.10563562E-03
               83                2   8.05578101E-03   30.0716385E-03               0.  -2.13536690E-03
               83                3   2.63061770E-03   21.2112013E-03               0.  -5.84264053E-03
               83                4   6.27840962E-03   23.9436924E-03               0.  -2.97598843E-03
               84                1   5.62763633E-03   19.1390850E-03               0.  -6.60084281E-03
               84                2   6.53292332E-03   21.7582639E-03               0.  -4.22108499E-03
               84                3   4.24939580E-03   14.4546852E-03               0.  -6.12265011E-03
               84                4   4.95262444E-03   16.4460149E-03               0.  -3.96906072E-03
               85                1   6.33163750E-03   19.6399949E-03               0.  -4.56501078E-03
               85                2   6.36720331E-03   20.8024662E-03               0.  -2.91677751E-03
               85                3   5.15243364E-03   15.7726146E-03               0.  -4.36626980E-03
               85                4   5.16640628E-03   16.8192815E-03               0.  -2.78472551E-03
               86                1   4.90535283E-03   14.7862090E-03               0.  -2.36882013E-03
               86                2   4.11446765E-03   12.0516196E-03               0.  -1.96588598E-03
               86                3   5.97730698E-03   14.5359309E-03               0.  -3.26090562E-03
               86                4   5.31160133E-03   11.9853066E-03               0.  -2.94496468E-03
               87                1   4.00089985E-03   10.8769173E-03               0.  -1.20820384E-03
               87                2   3.81541089E-03   10.0493981E-03               0.  -438.040937E-06
               87                3   5.98321250E-03   11.3984719E-03               0.  -1.40161114E-03
               87                4   5.97172324E-03   10.6733618E-03               0.  -703.910773E-06
               88                1   6.99073635E-03   15.5069400E-03               0.  -2.28611939E-03
               88                2   5.59726683E-03   11.1841327E-03               0.  -2.76020239E-03
               88                3   6.12127082E-03   14.3047664E-03               0.  -3.68430116E-03
               88                4   4.77888156E-03   10.3299934E-03               0.  -4.27951990E-03
               89                1   6.55591767E-03   9.92339384E-03               0.  -936.240831E-06
               89                2   6.25078613E-03   8.66278633E-03               0.  -837.778498E-06
               89                3   6.92868093E-03   9.94999241E-03               0.  -1.29069225E-03
               89                4   6.67195534E-03   8.76294076E-03               0.  -1.22772425E-03
               90                1   6.25450443E-03   6.92928722E-03               0.  -1.51307811E-03
               90                2   6.04757899E-03   6.88526453E-03               0.  -1.75440777E-03
               90                3   6.56152517E-03   7.75007810E-03               0.  -1.35092170E-03
               90                4   6.38219714E-03   7.75460759E-03               0.  -1.57113082E-03
               91                1   4.92828991E-03   4.35031438E-03               0.  -2.02631741E-03
               91                2   3.57163069E-03   3.95621127E-03               0.  -2.13145651E-03
               91                3   5.52517734E-03   4.87828720E-03               0.  -1.46723515E-03
               91                4   4.21156222E-03   4.53108363E-03               0.  -1.51892402E-03
               92                1   1.31976733E-03   1.96044054E-03               0.  -1.92486262E-03
               92                2  -3.52247641E-03   488.916528E-06               0.  -1.66883273E-03
               92                3   2.54902989E-03   1.81175128E-03               0.  -243.841205E-06
               92                4  -2.71207932E-03   149.602143E-06               0.   246.801006E-06
               93                1   4.64008376E-03   9.49779060E-03               0.  -4.31213016E-03
               93                2   3.56236729E-03   9.56053566E-03               0.  -5.01287868E-03
               93                3   5.88285364E-03   12.1989278E-03               0.  -3.52071645E-03
               93                4   5.03963232E-03   12.5759272E-03               0.  -4.07064799E-03
               94                1   2.81033176E-03   7.00340513E-03               0.  -5.17354812E-03
               94                2   1.76590460E-03   7.02667795E-03               0.  -5.58051234E-03
               94                3   3.90102924E-03   8.84995703E-03               0.  -4.44981735E-03
               94                4   3.00061167E-03   9.09976847E-03               0.  -4.76368796E-03
               95                1   2.09318497E-03   4.08992684E-03               0.  -4.22973558E-03
               95                2  -390.596426E-06   3.25691770E-03               0.  -3.87298828E-03
               95                3   3.20442906E-03   4.06247424E-03               0.  -3.34672839E-03
               95                4   834.214443E-06   3.20944283E-03               0.  -2.85635702E-03
               96                1   6.07722998E-03   21.2186072E-03               0.   9.07516945E-03
               96                2   7.96927977E-03   19.2616470E-03               0.   9.77012701E-03
               96                3   3.80397192E-03   17.6161062E-03               0.   7.63417687E-03
               96                4   5.56744030E-03   16.0958972E-03               0.   8.31274409E-03
               97                1   3.55583616E-03   19.8322423E-03               0.   4.80755977E-03
               97                2   2.95852381E-03   18.0577412E-03               0.   5.76920900E-03
               97                3   3.04451981E-03   18.0514790E-03               0.   4.48111817E-03
               97                4   2.50121905E-03   16.4220985E-03               0.   5.30242547E-03
               98                1   3.40922829E-03   17.5247155E-03               0.   4.24273266E-03
               98                2   2.14282935E-03   16.3549017E-03               0.   4.90683224E-03
               98                3   3.49511579E-03   16.9223361E-03               0.   4.34754090E-03
               98                4   2.42057000E-03   15.8252623E-03               0.   4.93406132E-03
               99                1   2.55256752E-03   13.9178354E-03               0.   5.68377320E-03
               99                2   3.23130609E-03   14.8922345E-03               0.   6.16778107E-03
               99                3   2.68565165E-03   12.6781240E-03               0.   5.95606398E-03
               99                4   3.28864902E-03   13.3303469E-03               0.   6.41311333E-03
              100                1   4.60294634E-03   10.1250727E-03               0.   7.04711955E-03
              100                2   5.87721122E-03   11.1945840E-03               0.   7.67031824E-03
              100                3   5.41050918E-03   9.21231601E-03               0.   6.84082182E-03
              100                4   6.84225606E-03   10.1620527E-03               0.   7.44589930E-03
              101                1   3.64943943E-03   3.38049303E-03               0.   3.02736810E-03
              101                2   2.57245218E-03   2.74269748E-03               0.   3.87091981E-03
              101                3   5.14398655E-03   3.74813704E-03               0.   3.14942421E-03
              101                4   4.17967374E-03   3.17731895E-03               0.   3.90297407E-03
              102                1   902.409200E-06   278.686435E-06               0.   160.199124E-06
              102                2   47.2048159E-06   23.9644778E-06               0.   1.94313400E-03
              102                3   5.15684625E-03   1.55555434E-03               0.   328.622322E-06
              102                4   3.99120757E-03   1.20711385E-03               0.   1.98220834E-03
              103                1   5.72512485E-03   8.77600163E-03               0.   3.69671267E-03
              103                2   3.95558262E-03   5.11614839E-03               0.   4.82366607E-03
              103                3   6.76773256E-03   8.37516040E-03               0.   3.00843804E-03
              103                4   5.27854543E-03   5.10033732E-03               0.   3.95452883E-03
              104                1   6.58434629E-03   3.16090230E-03               0.   1.39660272E-03
              104                2   5.80683071E-03   2.07157223E-03               0.   2.13489612E-03
              104                3   8.05880874E-03   3.54809524E-03               0.   1.17420638E-03
              104                4   7.34363589E-03   2.51605012E-03               0.   1.87397643E-03
              105                1   8.29877052E-03   3.11831827E-03               0.   1.62948808E-03
              105                2   9.41758137E-03   3.49285291E-03               0.   1.04342937E-03
              105                3   9.06252582E-03   4.89095738E-03               0.   1.09752617E-03
              105                4   10.1457285E-03   5.34652406E-03               0.   522.390706E-06
              106                1   9.92413703E-03   3.51749547E-03               0.   747.546321E-06
              106                2   10.3990138E-03   3.70589225E-03               0.   171.667300E-06
              106                3   10.4089780E-03   5.00112353E-03               0.   548.119075E-06
              106                4   10.8882980E-03   5.29509597E-03               0.  -1.66499103E-06
              107                1   5.60786622E-03   5.13176061E-03               0.   3.84517084E-03
              107                2   7.54682068E-03   6.43707346E-03               0.   2.03768373E-03
              107                3   7.34048290E-03   9.61670931E-03               0.   2.88633443E-03
              107                4   9.25978739E-03   11.3108894E-03               0.   1.17767486E-03
              108                1   8.02308600E-03   5.41488361E-03               0.   1.55891781E-03
              108                2   9.22913942E-03   6.30903430E-03               0.   229.216530E-06
              108                3   8.98988172E-03   8.40073638E-03               0.   1.16793648E-03
              108                4   10.2057941E-03   9.48925409E-03               0.  -115.874951E-06
              109                1   8.04514717E-03   10.9220948E-03               0.   69.9662196E-06
              109                2   9.17303748E-03   14.7268111E-03               0.  -101.957317E-06
              109                3   7.00865220E-03   9.53652337E-03               0.   1.67538784E-03
              109                4   8.02541897E-03   13.0832978E-03               0.   1.59770250E-03
              110                1   6.33807387E-03   16.7872440E-03               0.   296.697195E-06
              110                2   7.94711988E-03   22.2100783E-03               0.   173.492153E-06
              110                3   5.16832480E-03   14.7103360E-03               0.   2.43403646E-03
              110                4   6.68716198E-03   20.0079493E-03               0.   2.50591827E-03
              111                1   2.28210515E-03   24.9988753E-03               0.   1.14978489E-03
              111                2   4.92820609E-03   33.7507501E-03               0.   1.48841226E-03
              111                3   2.22233031E-03   22.7207951E-03               0.   4.26477799E-03
              111                4   5.17087476E-03   32.2497003E-03               0.   4.97905165E-03
              112                1   6.60988642E-03   12.3547604E-03               0.   2.14881753E-03
              112                2   7.66603556E-03   16.7634748E-03               0.   1.84985157E-03
              112                3   4.18505864E-03   10.0706639E-03               0.   4.18844167E-03
              112                4   4.87546436E-03   13.8751855E-03               0.   4.14730236E-03
              113                1   5.26757585E-03   18.4615962E-03               0.   2.70219590E-03
              113                2   6.41043903E-03   22.4771351E-03               0.   2.93600326E-03
              113                3   4.33928054E-03   16.3837560E-03               0.   4.38674306E-03
              113                4   5.36066107E-03   20.1230310E-03               0.   4.82042087E-03
              114                1   3.00448062E-03   23.2926682E-03               0.   5.59154851E-03
              114                2   5.63841360E-03   30.3565953E-03               0.   6.99013192E-03
              114                3   4.57855547E-03   20.7895003E-03               0.   7.90592376E-03
              114                4   7.47404853E-03   27.6503265E-03               0.   9.64227971E-03
              115                1   6.70401892E-03   21.9544582E-03               0.   9.79760848E-03
              115                2   9.30430554E-03   19.4402970E-03               0.   10.5779367E-03
              115                3   4.32665227E-03   18.0955939E-03               0.   8.26508738E-03
              115                4   6.62954757E-03   15.9860421E-03               0.   8.97220243E-03
              116                1   4.01814096E-03   19.8633615E-03               0.   5.84173435E-03
              116                2   4.24615340E-03   18.1302931E-03               0.   6.51880866E-03
              116                3   3.30808712E-03   18.1928240E-03               0.   5.41143678E-03
              116                4   3.40245687E-03   16.4785106E-03               0.   5.92784444E-03
              117                1   2.54646735E-03   16.1445606E-03               0.   5.80122368E-03
              117                2   2.14211689E-03   16.1063503E-03               0.   5.71542233E-03
              117                3   1.93877402E-03   15.8280861E-03               0.   6.05284842E-03
              117                4   1.51147426E-03   15.7514196E-03               0.   6.01558946E-03
              118                1   2.33588996E-03   14.7242015E-03               0.   5.80579508E-03
              118                2   2.31536129E-03   15.5559648E-03               0.   6.07879413E-03
              118                3   1.57335110E-03   13.1321214E-03               0.   6.33996353E-03
              118                4   1.44404103E-03   13.7079814E-03               0.   6.68017287E-03
              119                1   3.57349333E-03   10.3663914E-03               0.   6.48449780E-03
              119                2   4.63237567E-03   11.3861291E-03               0.   7.04446342E-03
              119                3   4.00412176E-03   9.51084401E-03               0.   6.37980131E-03
              119                4   5.18770982E-03   10.4491347E-03               0.   6.95309881E-03
              120                1   831.419427E-06   3.25944438E-03               0.   2.87606614E-03
              120                2  -367.474102E-06   3.32689984E-03               0.   3.87702929E-03
              120                3   3.18814581E-03   4.11560014E-03               0.   3.37351649E-03
              120                4   2.10845424E-03   4.16333275E-03               0.   4.24371287E-03
              121                1  -2.69972812E-03   139.649172E-06               0.  -239.293062E-06
              121                2  -3.49887554E-03   492.115912E-06               0.   1.67326361E-03
              121                3   2.53146468E-03   1.79674360E-03               0.   261.759735E-06
              121                4   1.33374415E-03   1.96174113E-03               0.   1.93455443E-03
              122                1   3.02329077E-03   9.13346466E-03               0.   4.78580454E-03
              122                2   1.77661458E-03   6.99986285E-03               0.   5.60881756E-03
              122                3   3.90143530E-03   8.87446664E-03               0.   4.45962977E-03
              122                4   2.79363710E-03   6.97403215E-03               0.   5.19135734E-03
              123                1   4.22276650E-03   4.55977814E-03               0.   1.52198470E-03
              123                2   3.57908453E-03   3.96397430E-03               0.   2.13834969E-03
              123                3   5.53861121E-03   4.90721595E-03               0.   1.46163278E-03
              123                4   4.92522540E-03   4.35498869E-03               0.   2.02725548E-03
              124                1   5.02189295E-03   12.5484774E-03               0.   4.07097861E-03
              124                2   3.54157458E-03   9.54153202E-03               0.   5.01597440E-03
              124                3   5.87076973E-03   12.1742273E-03               0.   3.52220866E-03
              124                4   4.62906156E-03   9.48026963E-03               0.   4.31401515E-03
              125                1   6.37133000E-03   7.73612410E-03               0.   1.56814407E-03
              125                2   6.03547925E-03   6.87759183E-03               0.   1.75550696E-03
              125                3   6.55880244E-03   7.73473782E-03               0.   1.35118491E-03
              125                4   6.25123596E-03   6.92445273E-03               0.   1.51713914E-03
              126                1   6.67199586E-03   8.76104739E-03               0.   1.22847769E-03
              126                2   6.25332352E-03   8.66121240E-03               0.   839.783635E-06
              126                3   6.92487368E-03   9.93875042E-03               0.   1.28845894E-03
              126                4   6.55489694E-03   9.91122797E-03               0.   935.781281E-06
              127                1   5.97444177E-03   10.6743006E-03               0.   704.014208E-06
              127                2   3.81589727E-03   10.0495694E-03               0.   437.896408E-06
              127                3   5.98280411E-03   11.3977985E-03               0.   1.40099716E-03
              127                4   4.00019577E-03   10.8757038E-03               0.   1.20727182E-03
              128                1   4.77580167E-03   10.3239100E-03               0.   4.28104820E-03
              128                2   5.59528731E-03   11.1724315E-03               0.   2.75966735E-03
              128                3   6.11612853E-03   14.2926630E-03               0.   3.68746184E-03
              128                4   6.98742503E-03   15.4913925E-03               0.   2.28638039E-03
              129                1   5.31543605E-03   11.9860871E-03               0.   2.94422708E-03
              129                2   4.11494914E-03   12.0494207E-03               0.   1.96466804E-03
              129                3   5.98086882E-03   14.5342909E-03               0.   3.26101948E-03
              129                4   4.90543433E-03   14.7822490E-03               0.   2.36822967E-03
              130                1   5.16559649E-03   16.8149564E-03               0.   2.78453901E-03
              130                2   6.36651414E-03   20.7983572E-03               0.   2.91714328E-03
              130                3   5.15355868E-03   15.7706328E-03               0.   4.36680811E-03
              130                4   6.33273646E-03   19.6373072E-03               0.   4.56651067E-03
              131                1   6.27760030E-03   23.9400752E-03               0.   2.97625037E-03
              131                2   8.05482920E-03   30.0685279E-03               0.   2.13633291E-03
              131                3   2.63228524E-03   21.2101601E-03               0.   5.84231503E-03
              131                4   4.33892291E-03   27.7832057E-03               0.   5.10728126E-03
              132                1   4.94961720E-03   16.4360199E-03               0.   3.96609539E-03
              132                2   6.52891770E-03   21.7433292E-03               0.   4.22155578E-03
              132                3   4.25450364E-03   14.4570889E-03               0.   6.11698814E-03
              132                4   5.63068455E-03   19.1317610E-03               0.   6.59981184E-03
              133                1   2.65313173E-03   22.8980947E-03               0.   6.89130882E-03
              133                2   5.00885211E-03   29.2080417E-03               0.   8.22997931E-03
              133                3   5.00905700E-03   20.7293108E-03               0.   9.13386606E-03
              133                4   7.63479061E-03   26.8046372E-03               0.   10.7247494E-03
              134                1   6.84117619E-03   10.1652388E-03               0.  -7.44245108E-03
              134                2   5.87532064E-03   11.1903278E-03               0.  -7.66792102E-03
              134                3   5.41136740E-03   9.21761803E-03               0.  -6.83895219E-03
              134                4   4.60189767E-03   10.1235360E-03               0.  -7.04579335E-03
              135                1   3.29198409E-03   13.3505203E-03               0.  -6.40566973E-03
              135                2   3.22668790E-03   14.8910694E-03               0.  -6.16508815E-03
              135                3   2.68855249E-03   12.7001898E-03               0.  -5.95181622E-03
              135                4   2.54766643E-03   13.9217228E-03               0.  -5.68318507E-03
              136                1   2.41508265E-03   15.8258621E-03               0.  -4.93279472E-03
              136                2   2.14004493E-03   16.3723230E-03               0.  -4.90871258E-03
              136                3   3.49334278E-03   16.9337112E-03               0.  -4.34174715E-03
              136                4   3.41204274E-03   17.5500792E-03               0.  -4.23877453E-03
              137                1   2.50129844E-03   16.4398775E-03               0.  -5.31388121E-03
              137                2   2.95104343E-03   18.0462915E-03               0.  -5.77358063E-03
              137                3   3.04104970E-03   18.0601981E-03               0.  -4.48817061E-03
              137                4   3.55224172E-03   19.8387243E-03               0.  -4.81412094E-03
              138                1   5.52763743E-03   16.0499085E-03               0.  -8.26808996E-03
              138                2   7.97578227E-03   19.2693938E-03               0.  -9.75221861E-03
              138                3   3.76999867E-03   17.6096186E-03               0.  -7.60343065E-03
              138                4   6.07437501E-03   21.2432500E-03               0.  -9.06276982E-03
              139                1   7.46504171E-03   27.6278928E-03               0.  -9.62667353E-03
              139                2   5.64750610E-03   30.3083509E-03               0.  -6.98767323E-03
              139                3   4.55855066E-03   20.7634158E-03               0.  -7.87789095E-03
              139                4   2.99189100E-03   23.2192408E-03               0.  -5.57114044E-03
              140                1   5.20362984E-03   32.2467387E-03               0.  -4.99613723E-03
              140                2   4.93258564E-03   33.7355882E-03               0.  -1.49002264E-03
              140                3   2.24773563E-03   22.7142256E-03               0.  -4.25668666E-03
              140                4   2.27403990E-03   24.9474049E-03               0.  -1.13876211E-03
              141                1   5.33922995E-03   20.0850610E-03               0.  -4.80375718E-03
              141                2   6.40017167E-03   22.4260706E-03               0.  -2.91842129E-03
              141                3   4.33950033E-03   16.4131876E-03               0.  -4.38780198E-03
              141                4   5.28480066E-03   18.5038317E-03               0.  -2.70384946E-03
              142                1   6.67939149E-03   20.0026296E-03               0.  -2.50715716E-03
              142                2   7.94241205E-03   22.1936014E-03               0.  -169.598701E-06
              142                3   5.15688071E-03   14.7003671E-03               0.  -2.44769338E-03
              142                4   6.34671282E-03   16.8181658E-03               0.  -296.631100E-06
              143                1   4.87418892E-03   13.9237549E-03               0.  -4.14886419E-03
              143                2   7.66367977E-03   16.8267861E-03               0.  -1.85059127E-03
              143                3   4.18037828E-03   10.1094479E-03               0.  -4.18919651E-03
              143                4   6.60089403E-03   12.3920068E-03               0.  -2.14948040E-03
              144                1   8.01106542E-03   13.0841620E-03               0.  -1.59501529E-03
              144                2   9.17821657E-03   14.7585012E-03               0.   103.443381E-06
              144                3   6.99640717E-03   9.54154134E-03               0.  -1.67601637E-03
              144                4   8.05041194E-03   10.9531702E-03               0.  -72.2571640E-06
              145                1   10.2111362E-03   9.51704290E-03               0.   118.212956E-06
              145                2   9.22981557E-03   6.32104650E-03               0.  -229.525787E-06
              145                3   8.98502208E-03   8.40949547E-03               0.  -1.16880937E-03
              145                4   8.01643170E-03   5.41581400E-03               0.  -1.56065938E-03
              146                1   10.8898915E-03   5.30274119E-03               0.   2.95990344E-06
              146                2   10.3988647E-03   3.70772136E-03               0.  -171.063177E-06
              146                3   10.4084900E-03   5.00580622E-03               0.  -548.253069E-06
              146                4   9.92254261E-03   3.51820141E-03               0.  -748.037361E-06
              147                1   9.25635453E-03   11.3348123E-03               0.  -1.17964693E-03
              147                2   7.54171098E-03   6.44687004E-03               0.  -2.03783251E-03
              147                3   7.34238606E-03   9.64641199E-03               0.  -2.88743130E-03
              147                4   5.60697168E-03   5.14568621E-03               0.  -3.84585746E-03
              148                1   10.1434011E-03   5.34671918E-03               0.  -523.743045E-06
              148                2   9.41613317E-03   3.49281612E-03               0.  -1.04405102E-03
              148                3   9.06247366E-03   4.89267427E-03               0.  -1.09811465E-03
              148                4   8.29915795E-03   3.11907474E-03               0.  -1.62968319E-03
              149                1   7.34483125E-03   2.51736306E-03               0.  -1.87423720E-03
              149                2   5.80885215E-03   2.07326841E-03               0.  -2.13575340E-03
              149                3   8.05978477E-03   3.55168083E-03               0.  -1.17445516E-03
              149                4   6.58659963E-03   3.16532515E-03               0.  -1.39720459E-03
              150                1   3.99331842E-03   1.20741955E-03               0.  -1.98353804E-03
              150                2   50.3961637E-06   24.5695956E-06               0.  -1.94395101E-03
              150                3   5.15690818E-03   1.55421323E-03               0.  -330.755138E-06
              150                4   904.843851E-06   277.950312E-06               0.  -161.238568E-06
              151                1   5.27523924E-03   5.10899257E-03               0.  -3.95713188E-03
              151                2   3.96103086E-03   5.12980809E-03               0.  -4.82462719E-03
              151                3   6.75752433E-03   8.37742258E-03               0.  -3.01636965E-03
              151                4   5.72468946E-03   8.78509600E-03               0.  -3.70213180E-03
              152                1   4.18269215E-03   3.18374392E-03               0.  -3.90555337E-03
              152                2   2.57724221E-03   2.74917018E-03               0.  -3.87188629E-03
              152                3   5.14356932E-03   3.74937523E-03               0.  -3.15385312E-03
              152                4   3.65112443E-03   3.38144274E-03               0.  -3.03021423E-03


********************************************************************************
Field Output Report, written Tue Jun 03 12:18:11 2025

Source 1
---------

   ODB: C:/lnms/Vid/VF/LinearnaPolja/PoljeU2/PoljeU2.odb
   Step: loading
   Frame: Increment      6: Step Time =   0.6000

Loc 1 : Integration point values from source 1

Output sorted by column "Element Label".

Field Output reported at integration points for part: SPECIMEN-1

          Element              Int            S.S11            S.S22            S.S33            S.S12
            Label               Pt           @Loc 1           @Loc 1           @Loc 1           @Loc 1
-------------------------------------------------------------------------------------------------------
                1                1   8.19289498E-03   12.2453207E-03               0.  -8.92524235E-03
                1                2   7.01803807E-03   13.4710306E-03               0.  -9.19325929E-03
                1                3   6.47107977E-03   11.0997669E-03               0.  -8.19698721E-03
                1                4   5.48578147E-03   12.1835787E-03               0.  -8.44316557E-03
                2                1   3.93740088E-03   16.0209052E-03               0.  -7.65515398E-03
                2                2   3.85619560E-03   17.8426169E-03               0.  -7.36683141E-03
                2                3   3.22135468E-03   15.2457133E-03               0.  -7.11682905E-03
                2                4   3.05093220E-03   16.6896656E-03               0.  -6.79572904E-03
                3                1   2.89569958E-03   18.9561713E-03               0.  -5.89908194E-03
                3                2   2.57721334E-03   19.6170062E-03               0.  -5.87292621E-03
                3                3   4.17547999E-03   20.2786829E-03               0.  -5.19488240E-03
                3                4   4.08575265E-03   21.0214388E-03               0.  -5.07439068E-03
                4                1   3.01064760E-03   19.7111219E-03               0.  -6.35836460E-03
                4                2   3.55585874E-03   21.6317493E-03               0.  -6.90715434E-03
                4                3   3.63725633E-03   21.6290299E-03               0.  -5.37647400E-03
                4                4   4.25302889E-03   23.7518400E-03               0.  -5.76633867E-03
                5                1   6.59484509E-03   19.2936938E-03               0.  -9.89801902E-03
                5                2   9.51814838E-03   23.1566932E-03               0.  -11.6723562E-03
                5                3   4.48049325E-03   21.1451650E-03               0.  -9.09402408E-03
                5                4   7.23167602E-03   25.5001094E-03               0.  -10.8380057E-03
                6                1   8.86752456E-03   33.1125148E-03               0.  -11.4950594E-03
                6                2   6.70262938E-03   36.2810306E-03               0.  -8.34606029E-03
                6                3   5.41325379E-03   24.9276441E-03               0.  -9.42156930E-03
                6                4   3.54455831E-03   27.8353021E-03               0.  -6.66516926E-03
                7                1   6.16505416E-03   38.5798588E-03               0.  -5.95361926E-03
                7                2   5.84742706E-03   40.3443128E-03               0.  -1.78413442E-03
                7                3   2.64921319E-03   27.2339769E-03               0.  -5.08178025E-03
                7                4   2.68455222E-03   29.8883524E-03               0.  -1.36743789E-03
                8                1   6.38000853E-03   24.0800325E-03               0.  -5.77064604E-03
                8                2   7.62341218E-03   26.8608797E-03               0.  -3.51796439E-03
                8                3   5.17612649E-03   19.6810719E-03               0.  -5.27107576E-03
                8                4   6.28418801E-03   22.1666601E-03               0.  -3.25780548E-03
                9                1   7.94033427E-03   23.9864495E-03               0.  -3.01083317E-03
                9                2   9.44395829E-03   26.5999921E-03               0.  -215.737571E-06
                9                3   6.11719163E-03   17.6403876E-03               0.  -2.94058514E-03
                9                4   7.53475633E-03   20.1697946E-03               0.  -366.113993E-06
               10                1   5.82244294E-03   16.7062357E-03               0.  -4.98130638E-03
               10                2   9.13887378E-03   20.1606434E-03               0.  -2.23590643E-03
               10                3   4.98469267E-03   12.1382577E-03               0.  -5.02909906E-03
               10                4   7.86235370E-03   14.8552740E-03               0.  -2.59075454E-03
               11                1   9.54280887E-03   15.7032851E-03               0.  -1.92122103E-03
               11                2   10.9350914E-03   17.7054387E-03               0.   114.108283E-06
               11                3   8.32510181E-03   11.4544239E-03               0.  -2.01807194E-03
               11                4   9.58264619E-03   13.1432964E-03               0.  -94.9406385E-06
               12                1   12.1807465E-03   11.4220697E-03               0.   134.954578E-06
               12                2   11.0027352E-03   7.58562284E-03               0.  -280.008506E-06
               12                3   10.7173845E-03   10.0968778E-03               0.  -1.40903657E-03
               12                4   9.55450442E-03   6.50266837E-03               0.  -1.87799765E-03
               13                1   13.0048227E-03   6.36126846E-03               0.  -358.321785E-09
               13                2   12.4117546E-03   4.43420978E-03               0.  -207.873032E-06
               13                3   12.4308718E-03   6.00514142E-03               0.  -665.953266E-06
               13                4   11.8443510E-03   4.20792401E-03               0.  -904.992281E-06
               14                1   11.0442946E-03   13.5884359E-03               0.  -1.42944627E-03
               14                2   8.99152551E-03   7.73736602E-03               0.  -2.45508458E-03
               14                3   8.76329653E-03   11.5764374E-03               0.  -3.47248395E-03
               14                4   6.68505859E-03   6.18820265E-03               0.  -4.62004263E-03
               15                1   12.1163046E-03   6.41304161E-03               0.  -643.228122E-06
               15                2   11.2418514E-03   4.17874707E-03               0.  -1.26426783E-03
               15                3   10.8292988E-03   5.87138021E-03               0.  -1.33490795E-03
               15                4   9.91207920E-03   3.73400305E-03               0.  -1.97016192E-03
               16                1   8.77499953E-03   3.01485695E-03               0.  -2.26655602E-03
               16                2   6.94614556E-03   2.48700939E-03               0.  -2.58340524E-03
               16                3   9.63336043E-03   4.26568510E-03               0.  -1.43158110E-03
               16                4   7.87999108E-03   3.80769907E-03               0.  -1.70182809E-03
               17                1   4.77741985E-03   1.44813047E-03               0.  -2.40193098E-03
               17                2   57.0994780E-06   32.1202933E-06               0.  -2.35391362E-03
               17                3   6.17603678E-03   1.86619081E-03               0.  -424.525817E-06
               17                4   1.08715089E-03   338.745478E-06               0.  -219.375390E-06
               18                1   6.29287120E-03   6.14434481E-03               0.  -4.75503132E-03
               18                2   4.72301524E-03   6.17601164E-03               0.  -5.79234120E-03
               18                3   8.06931034E-03   10.0552058E-03               0.  -3.62777966E-03
               18                4   6.83716126E-03   10.5491132E-03               0.  -4.44677379E-03
               19                1   5.01052011E-03   3.84504627E-03               0.  -4.69662948E-03
               19                2   3.11484095E-03   3.33428080E-03               0.  -4.65784827E-03
               19                3   6.15546107E-03   4.52511897E-03               0.  -3.80746764E-03
               19                4   4.39489773E-03   4.09456668E-03               0.  -3.66204907E-03
               20                1   6.26210868E-03   12.5541575E-03               0.  -8.33906326E-03
               20                2   5.57013089E-03   13.7493294E-03               0.  -8.44644010E-03
               20                3   4.78260918E-03   11.3704409E-03               0.  -7.61717325E-03
               20                4   4.25668573E-03   12.4694938E-03               0.  -7.74748484E-03
               21                1   1.76064670E-03   16.4507218E-03               0.  -7.99201336E-03
               21                2   2.79612374E-03   18.6601169E-03               0.  -7.27772247E-03
               21                3   1.90856692E-03   15.7538150E-03               0.  -7.58473668E-03
               21                4   2.81530875E-03   17.6436771E-03               0.  -6.94505405E-03
               22                1   1.81109388E-03   18.9062767E-03               0.  -7.17206020E-03
               22                2   2.56999140E-03   19.2820467E-03               0.  -6.82464661E-03
               22                3   2.33472930E-03   19.0167371E-03               0.  -7.23067904E-03
               22                4   3.06562148E-03   19.3562303E-03               0.  -6.94121281E-03
               23                1   4.08748398E-03   19.7609365E-03               0.  -7.10277678E-03
               23                2   5.09639224E-03   21.7387788E-03               0.  -7.80786807E-03
               23                3   3.96403531E-03   21.8004920E-03               0.  -6.47977320E-03
               23                4   4.81287530E-03   23.8022488E-03               0.  -6.99272007E-03
               24                1   7.90891610E-03   19.2242898E-03               0.  -10.7473545E-03
               24                2   11.0823996E-03   23.3455617E-03               0.  -12.6558077E-03
               24                3   5.15464554E-03   21.7204392E-03               0.  -9.89110023E-03
               24                4   7.97570683E-03   26.3231955E-03               0.  -11.7121786E-03
               25                1   9.06633958E-03   32.1221836E-03               0.  -12.8087429E-03
               25                2   5.94481314E-03   34.9710882E-03               0.  -9.83356219E-03
               25                3   5.95003087E-03   24.8830467E-03               0.  -10.9244026E-03
               25                4   3.14671523E-03   27.4591185E-03               0.  -8.24614707E-03
               26                1   5.16340090E-03   33.2849622E-03               0.  -6.06330950E-03
               26                2   9.64384153E-03   36.0240564E-03               0.  -2.51508784E-03
               26                3   3.12410132E-03   25.4285987E-03               0.  -6.95869885E-03
               26                4   7.52243446E-03   28.7060011E-03               0.  -3.52892443E-03
               27                1   6.71529397E-03   22.9668077E-03               0.  -7.90509768E-03
               27                2   7.79621117E-03   26.0899495E-03               0.  -5.05695352E-03
               27                3   5.06511563E-03   17.3569247E-03               0.  -7.33636506E-03
               27                4   5.90469595E-03   19.7326075E-03               0.  -4.75694239E-03
               28                1   7.55346473E-03   23.5507730E-03               0.  -5.43800322E-03
               28                2   7.62816938E-03   24.9513052E-03               0.  -3.46424128E-03
               28                3   6.14475459E-03   18.9246405E-03               0.  -5.20963129E-03
               28                4   6.19233446E-03   20.1871581E-03               0.  -3.31453816E-03
               29                1   5.88394515E-03   17.7555606E-03               0.  -2.82096281E-03
               29                2   4.93611582E-03   14.4811934E-03               0.  -2.34396150E-03
               29                3   7.14929588E-03   17.4499489E-03               0.  -3.88992298E-03
               29                4   6.35061692E-03   14.3956393E-03               0.  -3.51743307E-03
               30                1   4.80202027E-03   13.0753694E-03               0.  -1.44004694E-03
               30                2   4.57913149E-03   12.0843584E-03               0.  -522.623828E-06
               30                3   7.16261892E-03   13.6958500E-03               0.  -1.67177932E-03
               30                4   7.14727072E-03   12.8273331E-03               0.  -841.160363E-06
               31                1   8.35387968E-03   18.6099205E-03               0.  -2.74093729E-03
               31                2   6.68759178E-03   13.4395435E-03               0.  -3.30722355E-03
               31                3   7.31884735E-03   17.1767417E-03               0.  -4.41277819E-03
               31                4   5.71333198E-03   12.4224247E-03               0.  -5.12531633E-03
               32                1   7.84246344E-03   11.9323209E-03               0.  -1.12076034E-03
               32                2   7.47771701E-03   10.4250861E-03               0.  -1.00311835E-03
               32                3   8.28815531E-03   11.9643230E-03               0.  -1.54455786E-03
               32                4   7.98131991E-03   10.5451252E-03               0.  -1.46946916E-03
               33                1   7.48089841E-03   8.34428426E-03               0.  -1.81314070E-03
               33                2   7.24031916E-03   8.29402264E-03               0.  -2.10162788E-03
               33                3   7.84583855E-03   9.32459440E-03               0.  -1.62189570E-03
               33                4   7.63783278E-03   9.33220703E-03               0.  -1.88523903E-03
               34                1   5.90208964E-03   5.24431001E-03               0.  -2.43099360E-03
               34                2   4.29359917E-03   4.77745291E-03               0.  -2.55681458E-03
               34                3   6.61224732E-03   5.87509619E-03               0.  -1.76767854E-03
               34                4   5.05526690E-03   5.46441134E-03               0.  -1.82993722E-03
               35                1   1.60168088E-03   2.36212346E-03               0.  -2.31267116E-03
               35                2  -4.18091193E-03   604.247849E-06               0.  -2.00413982E-03
               35                3   3.07340804E-03   2.18155398E-03               0.  -307.609502E-06
               35                4  -3.20773898E-03   195.354645E-06               0.   283.297297E-06
               36                1   5.54533675E-03   11.4205247E-03               0.  -5.17029501E-03
               36                2   4.26022569E-03   11.4983795E-03               0.  -6.00384315E-03
               36                3   7.02815317E-03   14.6367326E-03               0.  -4.22561355E-03
               36                4   6.02337113E-03   15.0884027E-03               0.  -4.87889908E-03
               37                1   3.35959112E-03   8.43523536E-03               0.  -6.20139251E-03
               37                2   2.10931781E-03   8.46565142E-03               0.  -6.68599177E-03
               37                3   4.66728490E-03   10.6409760E-03               0.  -5.33429999E-03
               37                4   3.59013141E-03   10.9419432E-03               0.  -5.70712844E-03
               38                1   2.51677306E-03   4.93972190E-03               0.  -5.08131739E-03
               38                2  -430.785556E-06   3.94977583E-03               0.  -4.65457467E-03
               38                3   3.84542136E-03   4.90944786E-03               0.  -4.03532898E-03
               38                4   1.03481894E-03   3.89591698E-03               0.  -3.44977085E-03
               39                1   7.97850918E-03   26.3221487E-03               0.   11.7140580E-03
               39                2   11.0870097E-03   23.3436208E-03               0.   12.6564130E-03
               39                3   5.15195867E-03   21.7164531E-03               0.   9.89003200E-03
               39                4   7.90689792E-03   19.2158297E-03               0.   10.7443053E-03
               40                1   4.80511598E-03   23.7918943E-03               0.   6.99719135E-03
               40                2   5.09526301E-03   21.7345692E-03               0.   7.80529389E-03
               40                3   3.95401800E-03   21.7937361E-03               0.   6.48159580E-03
               40                4   4.08162037E-03   19.7558086E-03               0.   7.09781935E-03
               41                1   3.06062726E-03   19.3545558E-03               0.   6.94008684E-03
               41                2   2.56938441E-03   19.2992091E-03               0.   6.83149695E-03
               41                3   2.32788199E-03   18.9869460E-03               0.   7.23888399E-03
               41                4   1.80946104E-03   18.8886169E-03               0.   7.18898140E-03
               42                1   2.79946625E-03   17.6587775E-03               0.   6.93780463E-03
               42                2   2.77096569E-03   18.6476558E-03               0.   7.25822244E-03
               42                3   1.88774022E-03   15.7711189E-03               0.   7.57619180E-03
               42                4   1.72923121E-03   16.4568331E-03               0.   7.97719602E-03
               43                1   4.26502759E-03   12.4840755E-03               0.   7.77295884E-03
               43                2   5.54443244E-03   13.7182185E-03               0.   8.44992511E-03
               43                3   4.79496550E-03   11.4584910E-03               0.   7.64766661E-03
               43                4   6.22637011E-03   12.5959860E-03               0.   8.34102556E-03
               44                1   1.03120750E-03   3.95585457E-03               0.   3.47310700E-03
               44                2  -403.375219E-06   4.03359625E-03               0.   4.65926342E-03
               44                3   3.82572622E-03   4.97315638E-03               0.   4.06704843E-03
               44                4   2.53473921E-03   5.02764527E-03               0.   5.09780692E-03
               45                1  -3.19295586E-03   183.622455E-06               0.  -274.201389E-06
               45                2  -4.15268866E-03   608.118658E-06               0.   2.00949097E-03
               45                3   3.05226422E-03   2.16374616E-03               0.   329.056755E-06
               45                4   1.61821803E-03   2.36367807E-03               0.   2.32426752E-03
               46                1   3.61712347E-03   10.9823663E-03               0.   5.73345087E-03
               46                2   2.12187786E-03   8.43370985E-03               0.   6.71990030E-03
               46                3   4.66783391E-03   10.6703984E-03               0.   5.34590380E-03
               46                4   3.33957840E-03   8.40022881E-03               0.   6.22270582E-03
               47                1   5.06866165E-03   5.49881905E-03               0.   1.83359697E-03
               47                2   4.30244114E-03   4.78676055E-03               0.   2.56506680E-03
               47                3   6.62831496E-03   5.90976700E-03               0.   1.76099397E-03
               47                4   5.89849381E-03   5.24995429E-03               0.   2.43211817E-03
               48                1   6.00223290E-03   15.0555484E-03               0.   4.87927860E-03
               48                2   4.23541712E-03   11.4755994E-03               0.   6.00751955E-03
               48                3   7.01377774E-03   14.6071594E-03               0.   4.22738958E-03
               48                4   5.53220557E-03   11.3995085E-03               0.   5.17254742E-03
               49                1   7.62482639E-03   9.31001082E-03               0.   1.88165833E-03
               49                2   7.22590974E-03   8.28483608E-03               0.   2.10292009E-03
               49                3   7.84256216E-03   9.30616260E-03               0.   1.62221934E-03
               49                4   7.47703016E-03   8.33849143E-03               0.   1.81799568E-03
               50                1   7.98140932E-03   10.5428603E-03               0.   1.47036347E-03
               50                2   7.48074148E-03   10.4231890E-03               0.   1.00551965E-03
               50                3   8.28362349E-03   11.9508477E-03               0.   1.54190394E-03
               50                4   7.84121640E-03   11.9177280E-03               0.   1.12023682E-03
               51                1   7.15051312E-03   12.8284562E-03               0.   841.285510E-06
               51                2   4.57971264E-03   12.0845661E-03               0.   522.450195E-06
               51                3   7.16213835E-03   13.6950547E-03               0.   1.67104846E-03
               51                4   4.80118347E-03   13.0739277E-03               0.   1.43893564E-03
               52                1   5.70966862E-03   12.4151474E-03               0.   5.12716081E-03
               52                2   6.68522576E-03   13.4255216E-03               0.   3.30661051E-03
               52                3   7.31271552E-03   17.1622392E-03               0.   4.41657705E-03
               52                4   8.34991783E-03   18.5912736E-03               0.   2.74127722E-03
               53                1   6.35519763E-03   14.3965846E-03               0.   3.51655437E-03
               53                2   4.93668951E-03   14.4785717E-03               0.   2.34251237E-03
               53                3   7.15353899E-03   17.4479932E-03               0.   3.89006734E-03
               53                4   5.88403689E-03   17.7508295E-03               0.   2.82026688E-03
               54                1   6.19136402E-03   20.1819949E-03               0.   3.31432745E-03
               54                2   7.62734376E-03   24.9464083E-03               0.   3.46469344E-03
               54                3   6.14609383E-03   18.9222787E-03               0.   5.21028647E-03
               54                4   7.55476346E-03   23.5475712E-03               0.   5.43981232E-03
               55                1   7.52146356E-03   28.7016984E-03               0.   3.52925039E-03
               55                2   9.64269787E-03   36.0203609E-03               0.   2.51624594E-03
               55                3   3.12606664E-03   25.4273675E-03               0.   6.95832353E-03
               55                4   5.16327936E-03   33.2817249E-03               0.   6.06528344E-03
               56                1   5.90112526E-03   19.7206121E-03               0.   4.75342199E-03
               56                2   7.79145444E-03   26.0720793E-03               0.   5.05754398E-03
               56                3   5.07126236E-03   17.3597652E-03               0.   7.32962275E-03
               56                4   6.71897503E-03   22.9580384E-03               0.   7.90390652E-03
               57                1   3.14496714E-03   27.4505988E-03               0.   8.24278221E-03
               57                2   5.94598707E-03   34.9628925E-03               0.   9.83304344E-03
               57                3   5.95038757E-03   24.8797201E-03               0.   10.9197581E-03
               57                4   9.06973053E-03   32.1168192E-03               0.   12.8070451E-03
               58                1   7.23482389E-03   25.4710484E-03               0.   10.8527495E-03
               58                2   9.51033086E-03   23.1478233E-03               0.   11.6936285E-03
               58                3   4.52063931E-03   21.1532526E-03               0.   9.13061574E-03
               58                4   6.64210273E-03   19.3491243E-03               0.   9.95118078E-03
               59                1   4.25731344E-03   23.7443894E-03               0.   5.75872837E-03
               59                2   3.56510142E-03   21.6455329E-03               0.   6.90221461E-03
               59                3   3.64116207E-03   21.6186047E-03               0.   5.36813820E-03
               59                4   3.01047019E-03   19.6896847E-03               0.   6.34481339E-03
               60                1   4.08240035E-03   20.9912434E-03               0.   5.07909106E-03
               60                2   2.58038589E-03   19.5960961E-03               0.   5.87062631E-03
               60                3   4.17761225E-03   20.2651918E-03               0.   5.20176673E-03
               60                4   2.90217996E-03   18.9554170E-03               0.   5.90054365E-03
               61                1   3.05675413E-03   16.6849717E-03               0.   6.79642055E-03
               61                2   3.86170112E-03   17.8440046E-03               0.   7.37003377E-03
               61                3   3.21787922E-03   15.2193727E-03               0.   7.12192571E-03
               61                4   3.93342366E-03   15.9968901E-03               0.   7.66406581E-03
               62                1   5.48703922E-03   12.1854218E-03               0.   8.44475813E-03
               62                2   7.02027045E-03   13.4761063E-03               0.   9.19610821E-03
               62                3   6.47005159E-03   11.0934703E-03               0.   8.19923729E-03
               62                4   8.19416624E-03   12.2415517E-03               0.   8.92936345E-03
               63                1   4.39291680E-03   4.09341231E-03               0.   3.65865720E-03
               63                2   3.10915126E-03   3.32653360E-03               0.   4.65670042E-03
               63                3   6.15597749E-03   4.52360976E-03               0.   3.80219566E-03
               63                4   5.00694150E-03   3.83734796E-03               0.   4.69356356E-03
               64                1   1.08423294E-03   339.604594E-06               0.   218.132220E-06
               64                2   53.2794402E-06   31.3893688E-06               0.   2.35294015E-03
               64                3   6.17597019E-03   1.86777744E-03               0.   421.980047E-06
               64                4   4.77490202E-03   1.44776027E-03               0.   2.40034796E-03
               65                1   6.83770934E-03   10.5381962E-03               0.   4.44032531E-03
               65                2   4.71651368E-03   6.15966087E-03               0.   5.79121988E-03
               65                3   8.08153767E-03   10.0524547E-03               0.   3.61833558E-03
               65                4   6.29684050E-03   6.13397826E-03               0.   4.75195469E-03
               66                1   7.87730329E-03   3.80239938E-03               0.   1.70111307E-03
               66                2   6.94373902E-03   2.48497818E-03               0.   2.58238823E-03
               66                3   9.63220280E-03   4.26139403E-03               0.   1.43128773E-03
               66                4   8.77358485E-03   3.01328790E-03               0.   2.26625241E-03
               67                1   9.91163310E-03   3.73309362E-03               0.   1.96993654E-03
               67                2   11.2436041E-03   4.17878944E-03               0.   1.26353232E-03
               67                3   10.8293705E-03   5.86930104E-03               0.   1.33420643E-03
               67                4   12.1191004E-03   6.41278969E-03               0.   641.612103E-06
               68                1   11.8462751E-03   4.20708489E-03               0.   904.410204E-06
               68                2   12.4119343E-03   4.43201559E-03               0.   208.596815E-06
               68                3   12.4314679E-03   5.99953858E-03               0.   665.798958E-06
               68                4   13.0029107E-03   6.35209400E-03               0.   1.91046502E-06
               69                1   6.68614358E-03   6.17150310E-03               0.   4.61925007E-03
               69                2   8.99767596E-03   7.72563042E-03               0.   2.45492393E-03
               69                3   8.76103528E-03   11.5408851E-03               0.   3.47119686E-03
               69                4   11.0484343E-03   13.5598220E-03               0.   1.42709562E-03
               70                1   9.56251193E-03   6.50155777E-03               0.   1.87591731E-03
               70                2   11.0019194E-03   7.57120410E-03               0.   279.632135E-06
               70                3   10.7232314E-03   10.0863837E-03               0.   1.40800257E-03
               70                4   12.1743362E-03   11.3887470E-03               0.  -132.157977E-06
               71                1   9.57634673E-03   13.1060360E-03               0.   92.1925312E-06
               71                2   10.9288944E-03   17.6674519E-03               0.  -112.317830E-06
               71                3   8.33985023E-03   11.4484383E-03               0.   2.01732456E-03
               71                4   9.56007838E-03   15.7022662E-03               0.   1.92445656E-03
               72                1   7.52438419E-03   20.1327484E-03               0.   366.167078E-06
               72                2   9.44957696E-03   26.6196989E-03               0.   220.341055E-06
               72                3   6.13071583E-03   17.6522136E-03               0.   2.92424788E-03
               72                4   7.94947892E-03   23.9927694E-03               0.   3.00932466E-03
               73                1   2.69420212E-03   29.9498253E-03               0.   1.38052937E-03
               73                2   5.84218651E-03   40.3622836E-03               0.   1.78219320E-03
               73                3   2.61900714E-03   27.2420235E-03               0.   5.09128487E-03
               73                4   6.12609554E-03   38.5833047E-03               0.   5.93316928E-03
               74                1   7.87314586E-03   14.8107233E-03               0.   2.58995756E-03
               74                2   9.14167333E-03   20.0848617E-03               0.   2.23497674E-03
               74                3   4.99023777E-03   12.0918499E-03               0.   5.02817752E-03
               74                4   5.82387112E-03   16.6480634E-03               0.   4.97939158E-03
               75                1   6.26357412E-03   22.1161637E-03               0.   3.25566111E-03
               75                2   7.63584394E-03   26.9220751E-03               0.   3.53881367E-03
               75                3   5.17560774E-03   19.6458288E-03               0.   5.26970439E-03
               75                4   6.40547229E-03   24.1255239E-03               0.   5.79042127E-03
               76                1   3.55932373E-03   27.9232729E-03               0.   6.68943394E-03
               76                2   6.69139996E-03   36.3384634E-03               0.   8.34886916E-03
               76                3   5.43670077E-03   24.9594133E-03               0.   9.45489854E-03
               76                4   8.87767412E-03   33.1394337E-03               0.   11.5134437E-03
               77                1   6.26210868E-03   12.5541575E-03               0.  -8.33906326E-03
               77                2   5.57013089E-03   13.7493294E-03               0.  -8.44644010E-03
               77                3   4.78260918E-03   11.3704409E-03               0.  -7.61717325E-03
               77                4   4.25668573E-03   12.4694938E-03               0.  -7.74748484E-03
               78                1   1.76064670E-03   16.4507218E-03               0.  -7.99201336E-03
               78                2   2.79612374E-03   18.6601169E-03               0.  -7.27772247E-03
               78                3   1.90856692E-03   15.7538150E-03               0.  -7.58473668E-03
               78                4   2.81530875E-03   17.6436771E-03               0.  -6.94505405E-03
               79                1   1.81109388E-03   18.9062767E-03               0.  -7.17206020E-03
               79                2   2.56999140E-03   19.2820467E-03               0.  -6.82464661E-03
               79                3   2.33472930E-03   19.0167371E-03               0.  -7.23067904E-03
               79                4   3.06562148E-03   19.3562303E-03               0.  -6.94121281E-03
               80                1   4.08748398E-03   19.7609365E-03               0.  -7.10277678E-03
               80                2   5.09639224E-03   21.7387788E-03               0.  -7.80786807E-03
               80                3   3.96403531E-03   21.8004920E-03               0.  -6.47977320E-03
               80                4   4.81287530E-03   23.8022488E-03               0.  -6.99272007E-03
               81                1   7.90891610E-03   19.2242898E-03               0.  -10.7473545E-03
               81                2   11.0823996E-03   23.3455617E-03               0.  -12.6558077E-03
               81                3   5.15464554E-03   21.7204392E-03               0.  -9.89110023E-03
               81                4   7.97570683E-03   26.3231955E-03               0.  -11.7121786E-03
               82                1   9.06633958E-03   32.1221836E-03               0.  -12.8087429E-03
               82                2   5.94481314E-03   34.9710882E-03               0.  -9.83356219E-03
               82                3   5.95003087E-03   24.8830467E-03               0.  -10.9244026E-03
               82                4   3.14671523E-03   27.4591185E-03               0.  -8.24614707E-03
               83                1   5.16340090E-03   33.2849622E-03               0.  -6.06330950E-03
               83                2   9.64384153E-03   36.0240564E-03               0.  -2.51508784E-03
               83                3   3.12410132E-03   25.4285987E-03               0.  -6.95869885E-03
               83                4   7.52243446E-03   28.7060011E-03               0.  -3.52892443E-03
               84                1   6.71529397E-03   22.9668077E-03               0.  -7.90509768E-03
               84                2   7.79621117E-03   26.0899495E-03               0.  -5.05695352E-03
               84                3   5.06511563E-03   17.3569247E-03               0.  -7.33636506E-03
               84                4   5.90469595E-03   19.7326075E-03               0.  -4.75694239E-03
               85                1   7.55346473E-03   23.5507730E-03               0.  -5.43800322E-03
               85                2   7.62816938E-03   24.9513052E-03               0.  -3.46424128E-03
               85                3   6.14475459E-03   18.9246405E-03               0.  -5.20963129E-03
               85                4   6.19233446E-03   20.1871581E-03               0.  -3.31453816E-03
               86                1   5.88394515E-03   17.7555606E-03               0.  -2.82096281E-03
               86                2   4.93611582E-03   14.4811934E-03               0.  -2.34396150E-03
               86                3   7.14929588E-03   17.4499489E-03               0.  -3.88992298E-03
               86                4   6.35061692E-03   14.3956393E-03               0.  -3.51743307E-03
               87                1   4.80202027E-03   13.0753694E-03               0.  -1.44004694E-03
               87                2   4.57913149E-03   12.0843584E-03               0.  -522.623828E-06
               87                3   7.16261892E-03   13.6958500E-03               0.  -1.67177932E-03
               87                4   7.14727072E-03   12.8273331E-03               0.  -841.160363E-06
               88                1   8.35387968E-03   18.6099205E-03               0.  -2.74093729E-03
               88                2   6.68759178E-03   13.4395435E-03               0.  -3.30722355E-03
               88                3   7.31884735E-03   17.1767417E-03               0.  -4.41277819E-03
               88                4   5.71333198E-03   12.4224247E-03               0.  -5.12531633E-03
               89                1   7.84246344E-03   11.9323209E-03               0.  -1.12076034E-03
               89                2   7.47771701E-03   10.4250861E-03               0.  -1.00311835E-03
               89                3   8.28815531E-03   11.9643230E-03               0.  -1.54455786E-03
               89                4   7.98131991E-03   10.5451252E-03               0.  -1.46946916E-03
               90                1   7.48089841E-03   8.34428426E-03               0.  -1.81314070E-03
               90                2   7.24031916E-03   8.29402264E-03               0.  -2.10162788E-03
               90                3   7.84583855E-03   9.32459440E-03               0.  -1.62189570E-03
               90                4   7.63783278E-03   9.33220703E-03               0.  -1.88523903E-03
               91                1   5.90208964E-03   5.24431001E-03               0.  -2.43099360E-03
               91                2   4.29359917E-03   4.77745291E-03               0.  -2.55681458E-03
               91                3   6.61224732E-03   5.87509619E-03               0.  -1.76767854E-03
               91                4   5.05526690E-03   5.46441134E-03               0.  -1.82993722E-03
               92                1   1.60168088E-03   2.36212346E-03               0.  -2.31267116E-03
               92                2  -4.18091193E-03   604.247849E-06               0.  -2.00413982E-03
               92                3   3.07340804E-03   2.18155398E-03               0.  -307.609502E-06
               92                4  -3.20773898E-03   195.354645E-06               0.   283.297297E-06
               93                1   5.54533675E-03   11.4205247E-03               0.  -5.17029501E-03
               93                2   4.26022569E-03   11.4983795E-03               0.  -6.00384315E-03
               93                3   7.02815317E-03   14.6367326E-03               0.  -4.22561355E-03
               93                4   6.02337113E-03   15.0884027E-03               0.  -4.87889908E-03
               94                1   3.35959112E-03   8.43523536E-03               0.  -6.20139251E-03
               94                2   2.10931781E-03   8.46565142E-03               0.  -6.68599177E-03
               94                3   4.66728490E-03   10.6409760E-03               0.  -5.33429999E-03
               94                4   3.59013141E-03   10.9419432E-03               0.  -5.70712844E-03
               95                1   2.51677306E-03   4.93972190E-03               0.  -5.08131739E-03
               95                2  -430.785556E-06   3.94977583E-03               0.  -4.65457467E-03
               95                3   3.84542136E-03   4.90944786E-03               0.  -4.03532898E-03
               95                4   1.03481894E-03   3.89591698E-03               0.  -3.44977085E-03
               96                1   7.23482389E-03   25.4710484E-03               0.   10.8527495E-03
               96                2   9.51033086E-03   23.1478233E-03               0.   11.6936285E-03
               96                3   4.52063931E-03   21.1532526E-03               0.   9.13061574E-03
               96                4   6.64210273E-03   19.3491243E-03               0.   9.95118078E-03
               97                1   4.25731344E-03   23.7443894E-03               0.   5.75872837E-03
               97                2   3.56510142E-03   21.6455329E-03               0.   6.90221461E-03
               97                3   3.64116207E-03   21.6186047E-03               0.   5.36813820E-03
               97                4   3.01047019E-03   19.6896847E-03               0.   6.34481339E-03
               98                1   4.08240035E-03   20.9912434E-03               0.   5.07909106E-03
               98                2   2.58038589E-03   19.5960961E-03               0.   5.87062631E-03
               98                3   4.17761225E-03   20.2651918E-03               0.   5.20176673E-03
               98                4   2.90217996E-03   18.9554170E-03               0.   5.90054365E-03
               99                1   3.05675413E-03   16.6849717E-03               0.   6.79642055E-03
               99                2   3.86170112E-03   17.8440046E-03               0.   7.37003377E-03
               99                3   3.21787922E-03   15.2193727E-03               0.   7.12192571E-03
               99                4   3.93342366E-03   15.9968901E-03               0.   7.66406581E-03
              100                1   5.48703922E-03   12.1854218E-03               0.   8.44475813E-03
              100                2   7.02027045E-03   13.4761063E-03               0.   9.19610821E-03
              100                3   6.47005159E-03   11.0934703E-03               0.   8.19923729E-03
              100                4   8.19416624E-03   12.2415517E-03               0.   8.92936345E-03
              101                1   4.39291680E-03   4.09341231E-03               0.   3.65865720E-03
              101                2   3.10915126E-03   3.32653360E-03               0.   4.65670042E-03
              101                3   6.15597749E-03   4.52360976E-03               0.   3.80219566E-03
              101                4   5.00694150E-03   3.83734796E-03               0.   4.69356356E-03
              102                1   1.08423294E-03   339.604594E-06               0.   218.132220E-06
              102                2   53.2794402E-06   31.3893688E-06               0.   2.35294015E-03
              102                3   6.17597019E-03   1.86777744E-03               0.   421.980047E-06
              102                4   4.77490202E-03   1.44776027E-03               0.   2.40034796E-03
              103                1   6.83770934E-03   10.5381962E-03               0.   4.44032531E-03
              103                2   4.71651368E-03   6.15966087E-03               0.   5.79121988E-03
              103                3   8.08153767E-03   10.0524547E-03               0.   3.61833558E-03
              103                4   6.29684050E-03   6.13397826E-03               0.   4.75195469E-03
              104                1   7.87730329E-03   3.80239938E-03               0.   1.70111307E-03
              104                2   6.94373902E-03   2.48497818E-03               0.   2.58238823E-03
              104                3   9.63220280E-03   4.26139403E-03               0.   1.43128773E-03
              104                4   8.77358485E-03   3.01328790E-03               0.   2.26625241E-03
              105                1   9.91163310E-03   3.73309362E-03               0.   1.96993654E-03
              105                2   11.2436041E-03   4.17878944E-03               0.   1.26353232E-03
              105                3   10.8293705E-03   5.86930104E-03               0.   1.33420643E-03
              105                4   12.1191004E-03   6.41278969E-03               0.   641.612103E-06
              106                1   11.8462751E-03   4.20708489E-03               0.   904.410204E-06
              106                2   12.4119343E-03   4.43201559E-03               0.   208.596815E-06
              106                3   12.4314679E-03   5.99953858E-03               0.   665.798958E-06
              106                4   13.0029107E-03   6.35209400E-03               0.   1.91046502E-06
              107                1   6.68614358E-03   6.17150310E-03               0.   4.61925007E-03
              107                2   8.99767596E-03   7.72563042E-03               0.   2.45492393E-03
              107                3   8.76103528E-03   11.5408851E-03               0.   3.47119686E-03
              107                4   11.0484343E-03   13.5598220E-03               0.   1.42709562E-03
              108                1   9.56251193E-03   6.50155777E-03               0.   1.87591731E-03
              108                2   11.0019194E-03   7.57120410E-03               0.   279.632135E-06
              108                3   10.7232314E-03   10.0863837E-03               0.   1.40800257E-03
              108                4   12.1743362E-03   11.3887470E-03               0.  -132.157977E-06
              109                1   9.57634673E-03   13.1060360E-03               0.   92.1925312E-06
              109                2   10.9288944E-03   17.6674519E-03               0.  -112.317830E-06
              109                3   8.33985023E-03   11.4484383E-03               0.   2.01732456E-03
              109                4   9.56007838E-03   15.7022662E-03               0.   1.92445656E-03
              110                1   7.52438419E-03   20.1327484E-03               0.   366.167078E-06
              110                2   9.44957696E-03   26.6196989E-03               0.   220.341055E-06
              110                3   6.13071583E-03   17.6522136E-03               0.   2.92424788E-03
              110                4   7.94947892E-03   23.9927694E-03               0.   3.00932466E-03
              111                1   2.69420212E-03   29.9498253E-03               0.   1.38052937E-03
              111                2   5.84218651E-03   40.3622836E-03               0.   1.78219320E-03
              111                3   2.61900714E-03   27.2420235E-03               0.   5.09128487E-03
              111                4   6.12609554E-03   38.5833047E-03               0.   5.93316928E-03
              112                1   7.87314586E-03   14.8107233E-03               0.   2.58995756E-03
              112                2   9.14167333E-03   20.0848617E-03               0.   2.23497674E-03
              112                3   4.99023777E-03   12.0918499E-03               0.   5.02817752E-03
              112                4   5.82387112E-03   16.6480634E-03               0.   4.97939158E-03
              113                1   6.26357412E-03   22.1161637E-03               0.   3.25566111E-03
              113                2   7.63584394E-03   26.9220751E-03               0.   3.53881367E-03
              113                3   5.17560774E-03   19.6458288E-03               0.   5.26970439E-03
              113                4   6.40547229E-03   24.1255239E-03               0.   5.79042127E-03
              114                1   3.55932373E-03   27.9232729E-03               0.   6.68943394E-03
              114                2   6.69139996E-03   36.3384634E-03               0.   8.34886916E-03
              114                3   5.43670077E-03   24.9594133E-03               0.   9.45489854E-03
              114                4   8.87767412E-03   33.1394337E-03               0.   11.5134437E-03
              115                1   7.97850918E-03   26.3221487E-03               0.   11.7140580E-03
              115                2   11.0870097E-03   23.3436208E-03               0.   12.6564130E-03
              115                3   5.15195867E-03   21.7164531E-03               0.   9.89003200E-03
              115                4   7.90689792E-03   19.2158297E-03               0.   10.7443053E-03
              116                1   4.80511598E-03   23.7918943E-03               0.   6.99719135E-03
              116                2   5.09526301E-03   21.7345692E-03               0.   7.80529389E-03
              116                3   3.95401800E-03   21.7937361E-03               0.   6.48159580E-03
              116                4   4.08162037E-03   19.7558086E-03               0.   7.09781935E-03
              117                1   3.06062726E-03   19.3545558E-03               0.   6.94008684E-03
              117                2   2.56938441E-03   19.2992091E-03               0.   6.83149695E-03
              117                3   2.32788199E-03   18.9869460E-03               0.   7.23888399E-03
              117                4   1.80946104E-03   18.8886169E-03               0.   7.18898140E-03
              118                1   2.79946625E-03   17.6587775E-03               0.   6.93780463E-03
              118                2   2.77096569E-03   18.6476558E-03               0.   7.25822244E-03
              118                3   1.88774022E-03   15.7711189E-03               0.   7.57619180E-03
              118                4   1.72923121E-03   16.4568331E-03               0.   7.97719602E-03
              119                1   4.26502759E-03   12.4840755E-03               0.   7.77295884E-03
              119                2   5.54443244E-03   13.7182185E-03               0.   8.44992511E-03
              119                3   4.79496550E-03   11.4584910E-03               0.   7.64766661E-03
              119                4   6.22637011E-03   12.5959860E-03               0.   8.34102556E-03
              120                1   1.03120750E-03   3.95585457E-03               0.   3.47310700E-03
              120                2  -403.375219E-06   4.03359625E-03               0.   4.65926342E-03
              120                3   3.82572622E-03   4.97315638E-03               0.   4.06704843E-03
              120                4   2.53473921E-03   5.02764527E-03               0.   5.09780692E-03
              121                1  -3.19295586E-03   183.622455E-06               0.  -274.201389E-06
              121                2  -4.15268866E-03   608.118658E-06               0.   2.00949097E-03
              121                3   3.05226422E-03   2.16374616E-03               0.   329.056755E-06
              121                4   1.61821803E-03   2.36367807E-03               0.   2.32426752E-03
              122                1   3.61712347E-03   10.9823663E-03               0.   5.73345087E-03
              122                2   2.12187786E-03   8.43370985E-03               0.   6.71990030E-03
              122                3   4.66783391E-03   10.6703984E-03               0.   5.34590380E-03
              122                4   3.33957840E-03   8.40022881E-03               0.   6.22270582E-03
              123                1   5.06866165E-03   5.49881905E-03               0.   1.83359697E-03
              123                2   4.30244114E-03   4.78676055E-03               0.   2.56506680E-03
              123                3   6.62831496E-03   5.90976700E-03               0.   1.76099397E-03
              123                4   5.89849381E-03   5.24995429E-03               0.   2.43211817E-03
              124                1   6.00223290E-03   15.0555484E-03               0.   4.87927860E-03
              124                2   4.23541712E-03   11.4755994E-03               0.   6.00751955E-03
              124                3   7.01377774E-03   14.6071594E-03               0.   4.22738958E-03
              124                4   5.53220557E-03   11.3995085E-03               0.   5.17254742E-03
              125                1   7.62482639E-03   9.31001082E-03               0.   1.88165833E-03
              125                2   7.22590974E-03   8.28483608E-03               0.   2.10292009E-03
              125                3   7.84256216E-03   9.30616260E-03               0.   1.62221934E-03
              125                4   7.47703016E-03   8.33849143E-03               0.   1.81799568E-03
              126                1   7.98140932E-03   10.5428603E-03               0.   1.47036347E-03
              126                2   7.48074148E-03   10.4231890E-03               0.   1.00551965E-03
              126                3   8.28362349E-03   11.9508477E-03               0.   1.54190394E-03
              126                4   7.84121640E-03   11.9177280E-03               0.   1.12023682E-03
              127                1   7.15051312E-03   12.8284562E-03               0.   841.285510E-06
              127                2   4.57971264E-03   12.0845661E-03               0.   522.450195E-06
              127                3   7.16213835E-03   13.6950547E-03               0.   1.67104846E-03
              127                4   4.80118347E-03   13.0739277E-03               0.   1.43893564E-03
              128                1   5.70966862E-03   12.4151474E-03               0.   5.12716081E-03
              128                2   6.68522576E-03   13.4255216E-03               0.   3.30661051E-03
              128                3   7.31271552E-03   17.1622392E-03               0.   4.41657705E-03
              128                4   8.34991783E-03   18.5912736E-03               0.   2.74127722E-03
              129                1   6.35519763E-03   14.3965846E-03               0.   3.51655437E-03
              129                2   4.93668951E-03   14.4785717E-03               0.   2.34251237E-03
              129                3   7.15353899E-03   17.4479932E-03               0.   3.89006734E-03
              129                4   5.88403689E-03   17.7508295E-03               0.   2.82026688E-03
              130                1   6.19136402E-03   20.1819949E-03               0.   3.31432745E-03
              130                2   7.62734376E-03   24.9464083E-03               0.   3.46469344E-03
              130                3   6.14609383E-03   18.9222787E-03               0.   5.21028647E-03
              130                4   7.55476346E-03   23.5475712E-03               0.   5.43981232E-03
              131                1   7.52146356E-03   28.7016984E-03               0.   3.52925039E-03
              131                2   9.64269787E-03   36.0203609E-03               0.   2.51624594E-03
              131                3   3.12606664E-03   25.4273675E-03               0.   6.95832353E-03
              131                4   5.16327936E-03   33.2817249E-03               0.   6.06528344E-03
              132                1   5.90112526E-03   19.7206121E-03               0.   4.75342199E-03
              132                2   7.79145444E-03   26.0720793E-03               0.   5.05754398E-03
              132                3   5.07126236E-03   17.3597652E-03               0.   7.32962275E-03
              132                4   6.71897503E-03   22.9580384E-03               0.   7.90390652E-03
              133                1   3.14496714E-03   27.4505988E-03               0.   8.24278221E-03
              133                2   5.94598707E-03   34.9628925E-03               0.   9.83304344E-03
              133                3   5.95038757E-03   24.8797201E-03               0.   10.9197581E-03
              133                4   9.06973053E-03   32.1168192E-03               0.   12.8070451E-03
              134                1   8.19289498E-03   12.2453207E-03               0.  -8.92524235E-03
              134                2   7.01803807E-03   13.4710306E-03               0.  -9.19325929E-03
              134                3   6.47107977E-03   11.0997669E-03               0.  -8.19698721E-03
              134                4   5.48578147E-03   12.1835787E-03               0.  -8.44316557E-03
              135                1   3.93740088E-03   16.0209052E-03               0.  -7.65515398E-03
              135                2   3.85619560E-03   17.8426169E-03               0.  -7.36683141E-03
              135                3   3.22135468E-03   15.2457133E-03               0.  -7.11682905E-03
              135                4   3.05093220E-03   16.6896656E-03               0.  -6.79572904E-03
              136                1   2.89569958E-03   18.9561713E-03               0.  -5.89908194E-03
              136                2   2.57721334E-03   19.6170062E-03               0.  -5.87292621E-03
              136                3   4.17547999E-03   20.2786829E-03               0.  -5.19488240E-03
              136                4   4.08575265E-03   21.0214388E-03               0.  -5.07439068E-03
              137                1   3.01064760E-03   19.7111219E-03               0.  -6.35836460E-03
              137                2   3.55585874E-03   21.6317493E-03               0.  -6.90715434E-03
              137                3   3.63725633E-03   21.6290299E-03               0.  -5.37647400E-03
              137                4   4.25302889E-03   23.7518400E-03               0.  -5.76633867E-03
              138                1   6.59484509E-03   19.2936938E-03               0.  -9.89801902E-03
              138                2   9.51814838E-03   23.1566932E-03               0.  -11.6723562E-03
              138                3   4.48049325E-03   21.1451650E-03               0.  -9.09402408E-03
              138                4   7.23167602E-03   25.5001094E-03               0.  -10.8380057E-03
              139                1   8.86752456E-03   33.1125148E-03               0.  -11.4950594E-03
              139                2   6.70262938E-03   36.2810306E-03               0.  -8.34606029E-03
              139                3   5.41325379E-03   24.9276441E-03               0.  -9.42156930E-03
              139                4   3.54455831E-03   27.8353021E-03               0.  -6.66516926E-03
              140                1   6.16505416E-03   38.5798588E-03               0.  -5.95361926E-03
              140                2   5.84742706E-03   40.3443128E-03               0.  -1.78413442E-03
              140                3   2.64921319E-03   27.2339769E-03               0.  -5.08178025E-03
              140                4   2.68455222E-03   29.8883524E-03               0.  -1.36743789E-03
              141                1   6.38000853E-03   24.0800325E-03               0.  -5.77064604E-03
              141                2   7.62341218E-03   26.8608797E-03               0.  -3.51796439E-03
              141                3   5.17612649E-03   19.6810719E-03               0.  -5.27107576E-03
              141                4   6.28418801E-03   22.1666601E-03               0.  -3.25780548E-03
              142                1   7.94033427E-03   23.9864495E-03               0.  -3.01083317E-03
              142                2   9.44395829E-03   26.5999921E-03               0.  -215.737571E-06
              142                3   6.11719163E-03   17.6403876E-03               0.  -2.94058514E-03
              142                4   7.53475633E-03   20.1697946E-03               0.  -366.113993E-06
              143                1   5.82244294E-03   16.7062357E-03               0.  -4.98130638E-03
              143                2   9.13887378E-03   20.1606434E-03               0.  -2.23590643E-03
              143                3   4.98469267E-03   12.1382577E-03               0.  -5.02909906E-03
              143                4   7.86235370E-03   14.8552740E-03               0.  -2.59075454E-03
              144                1   9.54280887E-03   15.7032851E-03               0.  -1.92122103E-03
              144                2   10.9350914E-03   17.7054387E-03               0.   114.108283E-06
              144                3   8.32510181E-03   11.4544239E-03               0.  -2.01807194E-03
              144                4   9.58264619E-03   13.1432964E-03               0.  -94.9406385E-06
              145                1   12.1807465E-03   11.4220697E-03               0.   134.954578E-06
              145                2   11.0027352E-03   7.58562284E-03               0.  -280.008506E-06
              145                3   10.7173845E-03   10.0968778E-03               0.  -1.40903657E-03
              145                4   9.55450442E-03   6.50266837E-03               0.  -1.87799765E-03
              146                1   13.0048227E-03   6.36126846E-03               0.  -358.321785E-09
              146                2   12.4117546E-03   4.43420978E-03               0.  -207.873032E-06
              146                3   12.4308718E-03   6.00514142E-03               0.  -665.953266E-06
              146                4   11.8443510E-03   4.20792401E-03               0.  -904.992281E-06
              147                1   11.0442946E-03   13.5884359E-03               0.  -1.42944627E-03
              147                2   8.99152551E-03   7.73736602E-03               0.  -2.45508458E-03
              147                3   8.76329653E-03   11.5764374E-03               0.  -3.47248395E-03
              147                4   6.68505859E-03   6.18820265E-03               0.  -4.62004263E-03
              148                1   12.1163046E-03   6.41304161E-03               0.  -643.228122E-06
              148                2   11.2418514E-03   4.17874707E-03               0.  -1.26426783E-03
              148                3   10.8292988E-03   5.87138021E-03               0.  -1.33490795E-03
              148                4   9.91207920E-03   3.73400305E-03               0.  -1.97016192E-03
              149                1   8.77499953E-03   3.01485695E-03               0.  -2.26655602E-03
              149                2   6.94614556E-03   2.48700939E-03               0.  -2.58340524E-03
              149                3   9.63336043E-03   4.26568510E-03               0.  -1.43158110E-03
              149                4   7.87999108E-03   3.80769907E-03               0.  -1.70182809E-03
              150                1   4.77741985E-03   1.44813047E-03               0.  -2.40193098E-03
              150                2   57.0994780E-06   32.1202933E-06               0.  -2.35391362E-03
              150                3   6.17603678E-03   1.86619081E-03               0.  -424.525817E-06
              150                4   1.08715089E-03   338.745478E-06               0.  -219.375390E-06
              151                1   6.29287120E-03   6.14434481E-03               0.  -4.75503132E-03
              151                2   4.72301524E-03   6.17601164E-03               0.  -5.79234120E-03
              151                3   8.06931034E-03   10.0552058E-03               0.  -3.62777966E-03
              151                4   6.83716126E-03   10.5491132E-03               0.  -4.44677379E-03
              152                1   5.01052011E-03   3.84504627E-03               0.  -4.69662948E-03
              152                2   3.11484095E-03   3.33428080E-03               0.  -4.65784827E-03
              152                3   6.15546107E-03   4.52511897E-03               0.  -3.80746764E-03
              152                4   4.39489773E-03   4.09456668E-03               0.  -3.66204907E-03


********************************************************************************
Field Output Report, written Tue Jun 03 12:18:13 2025

Source 1
---------

   ODB: C:/lnms/Vid/VF/LinearnaPolja/PoljeU2/PoljeU2.odb
   Step: loading
   Frame: Increment      7: Step Time =   0.7000

Loc 1 : Integration point values from source 1

Output sorted by column "Element Label".

Field Output reported at integration points for part: SPECIMEN-1

          Element              Int            S.S11            S.S22            S.S33            S.S12
            Label               Pt           @Loc 1           @Loc 1           @Loc 1           @Loc 1
-------------------------------------------------------------------------------------------------------
                1                1   9.53883771E-03   14.3402591E-03               0.  -10.4059288E-03
                1                2   8.14999640E-03   15.7650635E-03               0.  -10.7155517E-03
                1                3   7.52333459E-03   12.9941320E-03               0.  -9.55166202E-03
                1                4   6.35779649E-03   14.2546846E-03               0.  -9.83641669E-03
                2                1   4.57873009E-03   18.6909363E-03               0.  -8.89453571E-03
                2                2   4.48063854E-03   20.7852442E-03               0.  -8.55873059E-03
                2                3   3.75254918E-03   17.7926030E-03               0.  -8.27374309E-03
                2                4   3.55208572E-03   19.4520149E-03               0.  -7.90068880E-03
                3                1   3.37546016E-03   22.0749937E-03               0.  -6.85906596E-03
                3                2   3.01717781E-03   22.8518583E-03               0.  -6.83173770E-03
                3                3   4.85217851E-03   23.6099679E-03               0.  -6.04328420E-03
                3                4   4.75647580E-03   24.4801324E-03               0.  -5.90627315E-03
                4                1   3.52264056E-03   22.9765531E-03               0.  -7.39723817E-03
                4                2   4.16510366E-03   25.2092239E-03               0.  -8.03432893E-03
                4                3   4.22928575E-03   25.1838043E-03               0.  -6.26197085E-03
                4                4   4.95040137E-03   27.6473947E-03               0.  -6.71545370E-03
                5                1   7.64956558E-03   22.5476101E-03               0.  -11.5200151E-03
                5                2   11.0431546E-03   27.0536188E-03               0.  -13.5822706E-03
                5                3   5.17717283E-03   24.6843416E-03               0.  -10.5747506E-03
                5                4   8.37048423E-03   29.7584850E-03               0.  -12.6009304E-03
                6                1   10.2412831E-03   38.5826230E-03               0.  -13.3448625E-03
                6                2   7.73443282E-03   42.2243737E-03               0.  -9.69180092E-03
                6                3   6.24984037E-03   29.0944520E-03               0.  -10.9545710E-03
                6                4   4.08298336E-03   32.4416980E-03               0.  -7.75250699E-03
                7                1   7.10176863E-03   44.8747315E-03               0.  -6.89775869E-03
                7                2   6.73991349E-03   46.9079241E-03               0.  -2.07694829E-03
                7                3   3.03584174E-03   31.7451023E-03               0.  -5.89829916E-03
                7                4   3.08137806E-03   34.8126590E-03               0.  -1.59630144E-03
                8                1   7.41152233E-03   28.0674808E-03               0.  -6.73927879E-03
                8                2   8.82827211E-03   31.2792696E-03               0.  -4.12231358E-03
                8                3   6.00235024E-03   22.9438934E-03               0.  -6.15603803E-03
                8                4   7.26509653E-03   25.8171298E-03               0.  -3.81578761E-03
                9                1   9.17729456E-03   27.9639177E-03               0.  -3.51492898E-03
                9                2   10.9177651E-03   30.9949797E-03               0.  -265.643612E-06
                9                3   7.05489004E-03   20.5797665E-03               0.  -3.43429251E-03
                9                4   8.69698171E-03   23.5168748E-03               0.  -438.725256E-06
               10                1   6.76189736E-03   19.4876250E-03               0.  -5.81452623E-03
               10                2   10.5953710E-03   23.4841220E-03               0.  -2.62598647E-03
               10                3   5.77860838E-03   14.1689647E-03               0.  -5.86957345E-03
               10                4   9.10480041E-03   17.3133947E-03               0.  -3.03556002E-03
               11                1   11.0517731E-03   18.3225721E-03               0.  -2.24958453E-03
               11                2   12.6665337E-03   20.6502043E-03               0.   121.623707E-06
               11                3   9.63104051E-03   13.3683942E-03               0.  -2.36219494E-03
               11                4   11.0898092E-03   15.3328227E-03               0.  -120.205026E-06
               12                1   14.1267711E-03   13.3272279E-03               0.   149.518266E-06
               12                2   12.7519760E-03   8.85006599E-03               0.  -331.926567E-06
               12                3   12.4287196E-03   11.7856720E-03               0.  -1.65124913E-03
               12                4   11.0714035E-03   7.59048760E-03               0.  -2.19692755E-03
               13                1   15.0991715E-03   7.41893565E-03               0.  -4.91177434E-06
               13                2   14.4028580E-03   5.15574357E-03               0.  -245.503121E-06
               13                3   14.4338552E-03   7.00369477E-03               0.  -786.184333E-06
               13                4   13.7456963E-03   4.89306543E-03               0.  -1.06426387E-03
               14                1   12.8115984E-03   15.8374961E-03               0.  -1.68357533E-03
               14                2   10.4222959E-03   9.02805291E-03               0.  -2.87532783E-03
               14                3   10.1686260E-03   13.5064386E-03               0.  -4.05981438E-03
               14                4   7.74898008E-03   7.23488117E-03               0.  -5.39568625E-03
               15                1   14.0709402E-03   7.47824367E-03               0.  -767.360441E-06
               15                2   13.0487559E-03   4.86052781E-03               0.  -1.48808595E-03
               15                3   12.5810662E-03   6.85000792E-03               0.  -1.57711364E-03
               15                4   11.5095517E-03   4.34599863E-03               0.  -2.31523416E-03
               16                1   10.1923011E-03   3.51038831E-03               0.  -2.66440446E-03
               16                2   8.07512272E-03   2.90042604E-03               0.  -3.03756609E-03
               16                3   11.1942245E-03   4.98085096E-03               0.  -1.69572851E-03
               16                4   9.16526839E-03   4.45305929E-03               0.  -2.01442651E-03
               17                1   5.55641996E-03   1.68860110E-03               0.  -2.82724691E-03
               17                2   62.4186068E-06   40.5679384E-06               0.  -2.77063902E-03
               17                3   7.19086686E-03   2.17864220E-03               0.  -527.177181E-06
               17                4   1.26968278E-03   401.377591E-06               0.  -285.846007E-06
               18                1   7.29824090E-03   7.18401186E-03               0.  -5.55482088E-03
               18                2   5.47499815E-03   7.22864736E-03               0.  -6.76069362E-03
               18                3   9.36804805E-03   11.7334900E-03               0.  -4.24161553E-03
               18                4   7.93886278E-03   12.3150731E-03               0.  -5.19252708E-03
               19                1   5.83520345E-03   4.51440550E-03               0.  -5.49074914E-03
               19                2   3.65908933E-03   3.93088302E-03               0.  -5.44741098E-03
               19                3   7.16147898E-03   5.30929631E-03               0.  -4.46816767E-03
               19                4   5.14240051E-03   4.81963018E-03               0.  -4.30195732E-03
               20                1   7.30632339E-03   14.7120655E-03               0.  -9.72565729E-03
               20                2   6.48115901E-03   16.1028616E-03               0.  -9.84973088E-03
               20                3   5.56850247E-03   13.3181550E-03               0.  -8.87764897E-03
               20                4   4.93979361E-03   14.5983249E-03               0.  -9.02900938E-03
               21                1   2.04986543E-03   19.2003641E-03               0.  -9.27914213E-03
               21                2   3.25334095E-03   21.7471588E-03               0.  -8.44889972E-03
               21                3   2.22618133E-03   18.3934588E-03               0.  -8.81231017E-03
               21                4   3.28015443E-03   20.5721203E-03               0.  -8.06915201E-03
               22                1   2.10790616E-03   22.0414232E-03               0.  -8.33328720E-03
               22                2   2.99708848E-03   22.4626008E-03               0.  -7.93126319E-03
               22                3   2.72526615E-03   22.1776441E-03               0.  -8.40759277E-03
               22                4   3.58212530E-03   22.5600377E-03               0.  -8.07361770E-03
               23                1   4.76693502E-03   23.0329521E-03               0.  -8.26869160E-03
               23                2   5.94533607E-03   25.3365487E-03               0.  -9.08937305E-03
               23                3   4.60635498E-03   25.3902879E-03               0.  -7.54583487E-03
               23                4   5.59550850E-03   27.7181938E-03               0.  -8.14341381E-03
               24                1   9.17076413E-03   22.4654693E-03               0.  -12.5123048E-03
               24                2   12.8392028E-03   27.2535626E-03               0.  -14.7218090E-03
               24                3   5.96754113E-03   25.3422745E-03               0.  -11.5069030E-03
               24                4   9.22863092E-03   30.6833722E-03               0.  -13.6142420E-03
               25                1   10.4715563E-03   37.4189615E-03               0.  -14.8708289E-03
               25                2   6.86117820E-03   40.6989716E-03               0.  -11.4226863E-03
               25                3   6.87202672E-03   29.0348511E-03               0.  -12.6973959E-03
               25                4   3.62641737E-03   32.0037492E-03               0.  -9.58920084E-03
               26                1   5.97397890E-03   38.7645215E-03               0.  -7.00027449E-03
               26                2   11.2241805E-03   41.9554338E-03               0.  -2.87950947E-03
               26                3   3.60716856E-03   29.6375602E-03               0.  -8.05753190E-03
               26                4   8.76245741E-03   33.4590077E-03               0.  -4.06813575E-03
               27                1   7.79056782E-03   26.7939325E-03               0.  -9.20393877E-03
               27                2   9.04542580E-03   30.4145869E-03               0.  -5.88993821E-03
               27                3   5.86970104E-03   20.2624109E-03               0.  -8.54634307E-03
               27                4   6.84431009E-03   23.0179075E-03               0.  -5.54273231E-03
               28                1   8.76089651E-03   27.4555460E-03               0.  -6.29793527E-03
               28                2   8.88487045E-03   29.0957447E-03               0.  -4.00004536E-03
               28                3   7.12475181E-03   22.0755432E-03               0.  -6.04317570E-03
               28                4   7.21572107E-03   23.5558618E-03               0.  -3.83549626E-03
               29                1   6.86156098E-03   20.7284167E-03               0.  -3.26604350E-03
               29                2   5.75724198E-03   16.9166923E-03               0.  -2.71709147E-03
               29                3   8.31355061E-03   20.3658268E-03               0.  -4.51135170E-03
               29                4   7.38199288E-03   16.8100074E-03               0.  -4.08446044E-03
               30                1   5.60333440E-03   15.2810188E-03               0.  -1.66868675E-03
               30                2   5.34296548E-03   14.1271958E-03               0.  -606.214278E-06
               30                3   8.33630562E-03   15.9986801E-03               0.  -1.93862943E-03
               30                4   8.31660535E-03   14.9873020E-03               0.  -977.243995E-06
               31                1   9.70553793E-03   21.7129420E-03               0.  -3.19489278E-03
               31                2   7.76838278E-03   15.7006159E-03               0.  -3.85250663E-03
               31                3   8.50768574E-03   20.0518388E-03               0.  -5.13841724E-03
               31                4   6.64083147E-03   14.5230936E-03               0.  -5.96768036E-03
               32                1   9.12087131E-03   13.9487637E-03               0.  -1.30435883E-03
               32                2   8.69698543E-03   12.1967494E-03               0.  -1.16770493E-03
               32                3   9.63895302E-03   13.9861954E-03               0.  -1.79698283E-03
               32                4   9.28242505E-03   12.3366211E-03               0.  -1.70992583E-03
               33                1   8.69918149E-03   9.76846181E-03               0.  -2.11229594E-03
               33                2   8.42738338E-03   9.71276686E-03               0.  -2.44755950E-03
               33                3   9.12090298E-03   10.9067149E-03               0.  -1.89302524E-03
               33                4   8.88647977E-03   10.9180873E-03               0.  -2.19918741E-03
               34                1   6.87177526E-03   6.14590524E-03               0.  -2.83535523E-03
               34                2   5.01764705E-03   5.60822105E-03               0.  -2.98173632E-03
               34                3   7.69322878E-03   6.87856367E-03               0.  -2.07021483E-03
               34                4   5.89902001E-03   6.40628161E-03               0.  -2.14311061E-03
               35                1   1.88902067E-03   2.76689394E-03               0.  -2.70130811E-03
               35                2  -4.82467143E-03   725.283928E-06               0.  -2.33987998E-03
               35                3   3.60205513E-03   2.55379244E-03               0.  -376.178185E-06
               35                4  -3.68855265E-03   246.304058E-06               0.   315.622019E-06
               36                1   6.44314522E-03   13.3503769E-03               0.  -6.02690224E-03
               36                2   4.95332479E-03   13.4441210E-03               0.  -6.99086254E-03
               36                3   8.16320069E-03   17.0734636E-03               0.  -4.93062614E-03
               36                4   6.99917646E-03   17.5995156E-03               0.  -5.68513107E-03
               37                1   3.90467513E-03   9.87678673E-03               0.  -7.22674560E-03
               37                2   2.44947290E-03   9.91505198E-03               0.  -7.78768631E-03
               37                3   5.42894192E-03   12.4382107E-03               0.  -6.21677330E-03
               37                4   4.17606300E-03   12.7905887E-03               0.  -6.64725713E-03
               38                1   2.94163241E-03   5.79973636E-03               0.  -5.93444007E-03
               38                2  -459.183415E-06   4.65595257E-03               0.  -5.43819228E-03
               38                3   4.48596943E-03   5.76746557E-03               0.  -4.72977664E-03
               38                4   1.24567561E-03   4.59667807E-03               0.  -4.05002851E-03
               39                1   9.23190452E-03   30.6821503E-03               0.   13.6164296E-03
               39                2   12.8445448E-03   27.2512734E-03               0.   14.7225363E-03
               39                3   5.96445845E-03   25.3376160E-03               0.   11.5056699E-03
               39                4   9.16844886E-03   22.4555954E-03               0.   12.5087965E-03
               40                1   5.58656594E-03   27.7062133E-03               0.   8.14856123E-03
               40                2   5.94403222E-03   25.3316145E-03               0.   9.08636115E-03
               40                3   4.59477212E-03   25.3824480E-03               0.   7.54789915E-03
               40                4   4.76012705E-03   23.0269209E-03               0.   8.26289412E-03
               41                1   3.57626472E-03   22.5580689E-03               0.   8.07224214E-03
               41                2   2.99628568E-03   22.4825237E-03               0.   7.93909375E-03
               41                3   2.71735922E-03   22.1431330E-03               0.   8.41713138E-03
               41                4   2.10607518E-03   22.0210832E-03               0.   8.35294090E-03
               42                1   3.26188141E-03   20.5893405E-03               0.   8.06062948E-03
               42                2   3.22431466E-03   21.7322931E-03               0.   8.42621922E-03
               42                3   2.20218068E-03   18.4134785E-03               0.   8.80223792E-03
               42                4   2.01356434E-03   19.2072596E-03               0.   9.26173851E-03
               43                1   4.94894618E-03   14.6154324E-03               0.   9.05831531E-03
               43                2   6.45131804E-03   16.0671268E-03               0.   9.85376257E-03
               43                3   5.58239687E-03   13.4203890E-03               0.   8.91264714E-03
               43                4   7.26477616E-03   14.7606190E-03               0.   9.72768385E-03
               44                1   1.24116894E-03   4.66652075E-03               0.   4.07688832E-03
               44                2  -427.591731E-06   4.75355238E-03               0.   5.44347474E-03
               44                3   4.46281862E-03   5.84173528E-03               0.   4.76629101E-03
               44                4   2.96218577E-03   5.90211712E-03               0.   5.95335010E-03
               45                1  -3.67135205E-03   232.858903E-06               0.  -304.912712E-06
               45                2  -4.79185907E-03   729.835592E-06               0.   2.34616129E-03
               45                3   3.57731315E-03   2.53324793E-03               0.   401.134312E-06
               45                4   1.90804352E-03   2.76870071E-03               0.   2.71479692E-03
               46                1   4.20729863E-03   12.8377313E-03               0.   6.67771557E-03
               46                2   2.46379105E-03   9.87806171E-03               0.   7.82717858E-03
               46                3   5.42965485E-03   12.4725420E-03               0.   6.23011403E-03
               46                4   3.88135109E-03   9.83622391E-03               0.   7.25154346E-03
               47                1   5.91458846E-03   6.44639321E-03               0.   2.14736536E-03
               47                2   5.02784410E-03   5.61907049E-03               0.   2.99134082E-03
               47                3   7.71191297E-03   6.91896211E-03               0.   2.06246041E-03
               47                4   6.86767418E-03   6.15253067E-03               0.   2.83666584E-03
               48                1   6.97468733E-03   17.5612848E-03               0.   5.68555389E-03
               48                2   4.92454739E-03   13.4175718E-03               0.   6.99510751E-03
               48                3   8.14657472E-03   17.0390401E-03               0.   4.93268063E-03
               48                4   6.42793626E-03   13.3258682E-03               0.   6.02951832E-03
               49                1   8.87134485E-03   10.8921751E-03               0.   2.19501392E-03
               49                2   8.41069873E-03   9.70207341E-03               0.   2.44903588E-03
               49                3   9.11706872E-03   10.8851846E-03               0.   1.89341174E-03
               49                4   8.69472977E-03   9.76171345E-03               0.   2.11793906E-03
               50                1   9.28257499E-03   12.3339873E-03               0.   1.71095761E-03
               50                2   8.70049000E-03   12.1945264E-03               0.   1.17050088E-03
               50                3   9.63370875E-03   13.9704924E-03               0.   1.79391669E-03
               50                4   9.11939051E-03   13.9317438E-03               0.   1.30378024E-03
               51                1   8.32036510E-03   14.9886087E-03               0.   977.391144E-06
               51                2   5.34364162E-03   14.1274408E-03               0.   606.011483E-06
               51                3   8.33575521E-03   15.9977674E-03               0.   1.93778356E-03
               51                4   5.60236676E-03   15.2793527E-03               0.   1.66739838E-03
               52                1   6.63659535E-03   14.5146307E-03               0.   5.96984429E-03
               52                2   7.76563259E-03   15.6842768E-03               0.   3.85182491E-03
               52                3   8.50057695E-03   20.0349465E-03               0.   5.14285592E-03
               52                4   9.70092975E-03   21.6911994E-03               0.   3.19532026E-03
               53                1   7.38731213E-03   16.8111213E-03               0.   4.08344297E-03
               53                2   5.75790647E-03   16.9136543E-03               0.   2.71541509E-03
               53                3   8.31846520E-03   20.3635581E-03               0.   4.51152958E-03
               53                4   6.86166156E-03   20.7229219E-03               0.   3.26524628E-03
               54                1   7.21459091E-03   23.5498678E-03               0.   3.83526576E-03
               54                2   8.88390932E-03   29.0900711E-03               0.   4.00058832E-03
               54                3   7.12630153E-03   22.0728070E-03               0.   6.04395056E-03
               54                4   8.76238756E-03   27.4518374E-03               0.   6.30005635E-03
               55                1   8.76132492E-03   33.4540345E-03               0.   4.06852923E-03
               55                2   11.2228449E-03   41.9511721E-03               0.   2.88085942E-03
               55                3   3.60942050E-03   29.6361465E-03               0.   8.05711094E-03
               55                4   5.97378099E-03   38.7607738E-03               0.   7.00257625E-03
               56                1   6.84018852E-03   23.0039079E-03               0.   5.53867035E-03
               56                2   9.03993379E-03   30.3937998E-03               0.   5.89065673E-03
               56                3   5.87689225E-03   20.2656761E-03               0.   8.53853766E-03
               56                4   7.79488869E-03   26.7837252E-03               0.   9.20260232E-03
               57                1   3.62442597E-03   31.9938473E-03               0.   9.58531164E-03
               57                2   6.86257286E-03   40.6894796E-03               0.   11.4220930E-03
               57                3   6.87247748E-03   29.0309507E-03               0.   12.6920333E-03
               57                4   10.4755182E-03   37.4127403E-03               0.   14.8688871E-03
               58                1   8.37384071E-03   29.7251698E-03               0.   12.6179708E-03
               58                2   11.0340230E-03   27.0437580E-03               0.   13.6068352E-03
               58                3   5.22329751E-03   24.6941186E-03               0.   10.6170867E-03
               58                4   7.70411966E-03   22.6125475E-03               0.   11.5815457E-03
               59                1   4.95536486E-03   27.6390780E-03               0.   6.70687295E-03
               59                2   4.17618593E-03   25.2253581E-03               0.   8.02891701E-03
               59                3   4.23354656E-03   25.1716897E-03               0.   6.25239033E-03
               59                4   3.52233672E-03   22.9514278E-03               0.   7.38165295E-03
               60                1   4.75259451E-03   24.4451798E-03               0.   5.91169903E-03
               60                2   3.02068610E-03   22.8274558E-03               0.   6.82900380E-03
               60                3   4.85467259E-03   23.5944111E-03               0.   6.05123723E-03
               60                4   3.38290120E-03   22.0740773E-03               0.   6.86070370E-03
               61                1   3.55880940E-03   19.4465034E-03               0.   7.90147949E-03
               61                2   4.48701996E-03   20.7868516E-03               0.   8.56243353E-03
               61                3   3.74850049E-03   17.7620314E-03               0.   8.27968773E-03
               61                4   4.57411772E-03   18.6631382E-03               0.   8.90490878E-03
               62                1   6.35926193E-03   14.2568341E-03               0.   9.83827561E-03
               62                2   8.15255940E-03   15.7709457E-03               0.   10.7188439E-03
               62                3   7.52213644E-03   12.9868602E-03               0.   9.55429580E-03
               62                4   9.54029150E-03   14.3359238E-03               0.   10.4107177E-03
               63                1   5.14013693E-03   4.81826626E-03               0.   4.29802714E-03
               63                2   3.65251838E-03   3.92186828E-03               0.   5.44608617E-03
               63                3   7.16209924E-03   5.30750910E-03               0.   4.46206611E-03
               63                4   5.83107816E-03   4.50543780E-03               0.   5.48720593E-03
               64                1   1.26628357E-03   402.351958E-06               0.   284.400448E-06
               64                2   57.9737207E-06   39.7098411E-06               0.   2.76951119E-03
               64                3   7.19079841E-03   2.18046713E-03               0.   524.222909E-06
               64                4   5.55350073E-03   1.68816547E-03               0.   2.82541453E-03
               65                1   7.93953054E-03   12.3023354E-03               0.   5.18506626E-03
               65                2   5.46745490E-03   7.20961951E-03               0.   6.75942237E-03
               65                3   9.38228797E-03   11.7302379E-03               0.   4.23068227E-03
               65                4   7.30287330E-03   7.17194099E-03               0.   5.55128511E-03
               66                1   9.16215219E-03   4.44688555E-03               0.   2.01360043E-03
               66                2   8.07233807E-03   2.89806118E-03               0.   3.03639332E-03
               66                3   11.1928917E-03   4.97585861E-03               0.   1.69539230E-03
               66                4   10.1906741E-03   3.50856571E-03               0.   2.66406033E-03
               67                1   11.5090515E-03   4.34493553E-03               0.   2.31498131E-03
               67                2   13.0508170E-03   4.86057438E-03               0.   1.48723973E-03
               67                3   12.5811594E-03   6.84756041E-03               0.   1.57630048E-03
               67                4   14.0742045E-03   7.47792935E-03               0.   765.483011E-06
               68                1   13.7479538E-03   4.89209546E-03               0.   1.06359296E-03
               68                2   14.4030685E-03   5.15318569E-03               0.   246.346084E-06
               68                3   14.4345630E-03   6.99717691E-03               0.   786.011689E-06
               68                4   15.0969410E-03   7.40823196E-03               0.   6.72047554E-06
               69                1   7.75025925E-03   7.21541280E-03               0.   5.39479824E-03
               69                2   10.4294932E-03   9.01438575E-03               0.   2.87516043E-03
               69                3   10.1660145E-03   13.4650655E-03               0.   4.05834569E-03
               69                4   12.8164515E-03   15.8042219E-03               0.   1.68085098E-03
               70                1   11.0807726E-03   7.58919911E-03               0.   2.19451170E-03
               70                2   12.7510196E-03   8.83323979E-03               0.   331.481511E-06
               70                3   12.4355583E-03   11.7734503E-03               0.   1.65005832E-03
               70                4   14.1192917E-03   13.2883796E-03               0.  -146.265927E-06
               71                1   11.0824807E-03   15.2893877E-03               0.   117.000527E-06
               71                2   12.6593243E-03   20.6059385E-03               0.  -119.526419E-06
               71                3   9.64831095E-03   13.3614521E-03               0.   2.36133114E-03
               71                4   11.0719698E-03   18.3214061E-03               0.   2.25337176E-03
               72                1   8.68487544E-03   23.4737284E-03               0.   438.756426E-06
               72                2   10.9242853E-03   31.0178902E-03               0.   270.934310E-06
               72                3   7.07042823E-03   20.5934048E-03               0.   3.41529096E-03
               72                4   9.18775611E-03   27.9712155E-03               0.   3.51314317E-03
               73                1   3.09260306E-03   34.8840393E-03               0.   1.61141902E-03
               73                2   6.73381845E-03   46.9286367E-03               0.   2.07467470E-03
               73                3   3.00092832E-03   31.7546800E-03               0.   5.90915373E-03
               73                4   7.05672195E-03   44.8786318E-03               0.   6.87396480E-03
               74                1   9.11739375E-03   17.2615871E-03               0.   3.03462800E-03
               74                2   10.5986046E-03   23.3959332E-03               0.   2.62485282E-03
               74                3   5.78499585E-03   14.1149769E-03               0.   5.86848008E-03
               74                4   6.76344708E-03   19.4198918E-03               0.   5.81224589E-03
               75                1   7.24111404E-03   25.7584285E-03               0.   3.81310214E-03
               75                2   8.84290226E-03   31.3505642E-03               0.   4.14635101E-03
               75                3   6.00145757E-03   22.9028612E-03               0.   6.15432160E-03
               75                4   7.44094141E-03   28.1204693E-03               0.   6.76209386E-03
               76                1   4.09981981E-03   32.5441621E-03               0.   7.78055424E-03
               76                2   7.72097241E-03   42.2908366E-03               0.   9.69491433E-03
               76                3   6.27655769E-03   29.1320439E-03               0.   10.9930914E-03
               76                4   10.2523752E-03   38.6140123E-03               0.   13.3659123E-03
               77                1   7.30632339E-03   14.7120655E-03               0.  -9.72565729E-03
               77                2   6.48115901E-03   16.1028616E-03               0.  -9.84973088E-03
               77                3   5.56850247E-03   13.3181550E-03               0.  -8.87764897E-03
               77                4   4.93979361E-03   14.5983249E-03               0.  -9.02900938E-03
               78                1   2.04986543E-03   19.2003641E-03               0.  -9.27914213E-03
               78                2   3.25334095E-03   21.7471588E-03               0.  -8.44889972E-03
               78                3   2.22618133E-03   18.3934588E-03               0.  -8.81231017E-03
               78                4   3.28015443E-03   20.5721203E-03               0.  -8.06915201E-03
               79                1   2.10790616E-03   22.0414232E-03               0.  -8.33328720E-03
               79                2   2.99708848E-03   22.4626008E-03               0.  -7.93126319E-03
               79                3   2.72526615E-03   22.1776441E-03               0.  -8.40759277E-03
               79                4   3.58212530E-03   22.5600377E-03               0.  -8.07361770E-03
               80                1   4.76693502E-03   23.0329521E-03               0.  -8.26869160E-03
               80                2   5.94533607E-03   25.3365487E-03               0.  -9.08937305E-03
               80                3   4.60635498E-03   25.3902879E-03               0.  -7.54583487E-03
               80                4   5.59550850E-03   27.7181938E-03               0.  -8.14341381E-03
               81                1   9.17076413E-03   22.4654693E-03               0.  -12.5123048E-03
               81                2   12.8392028E-03   27.2535626E-03               0.  -14.7218090E-03
               81                3   5.96754113E-03   25.3422745E-03               0.  -11.5069030E-03
               81                4   9.22863092E-03   30.6833722E-03               0.  -13.6142420E-03
               82                1   10.4715563E-03   37.4189615E-03               0.  -14.8708289E-03
               82                2   6.86117820E-03   40.6989716E-03               0.  -11.4226863E-03
               82                3   6.87202672E-03   29.0348511E-03               0.  -12.6973959E-03
               82                4   3.62641737E-03   32.0037492E-03               0.  -9.58920084E-03
               83                1   5.97397890E-03   38.7645215E-03               0.  -7.00027449E-03
               83                2   11.2241805E-03   41.9554338E-03               0.  -2.87950947E-03
               83                3   3.60716856E-03   29.6375602E-03               0.  -8.05753190E-03
               83                4   8.76245741E-03   33.4590077E-03               0.  -4.06813575E-03
               84                1   7.79056782E-03   26.7939325E-03               0.  -9.20393877E-03
               84                2   9.04542580E-03   30.4145869E-03               0.  -5.88993821E-03
               84                3   5.86970104E-03   20.2624109E-03               0.  -8.54634307E-03
               84                4   6.84431009E-03   23.0179075E-03               0.  -5.54273231E-03
               85                1   8.76089651E-03   27.4555460E-03               0.  -6.29793527E-03
               85                2   8.88487045E-03   29.0957447E-03               0.  -4.00004536E-03
               85                3   7.12475181E-03   22.0755432E-03               0.  -6.04317570E-03
               85                4   7.21572107E-03   23.5558618E-03               0.  -3.83549626E-03
               86                1   6.86156098E-03   20.7284167E-03               0.  -3.26604350E-03
               86                2   5.75724198E-03   16.9166923E-03               0.  -2.71709147E-03
               86                3   8.31355061E-03   20.3658268E-03               0.  -4.51135170E-03
               86                4   7.38199288E-03   16.8100074E-03               0.  -4.08446044E-03
               87                1   5.60333440E-03   15.2810188E-03               0.  -1.66868675E-03
               87                2   5.34296548E-03   14.1271958E-03               0.  -606.214278E-06
               87                3   8.33630562E-03   15.9986801E-03               0.  -1.93862943E-03
               87                4   8.31660535E-03   14.9873020E-03               0.  -977.243995E-06
               88                1   9.70553793E-03   21.7129420E-03               0.  -3.19489278E-03
               88                2   7.76838278E-03   15.7006159E-03               0.  -3.85250663E-03
               88                3   8.50768574E-03   20.0518388E-03               0.  -5.13841724E-03
               88                4   6.64083147E-03   14.5230936E-03               0.  -5.96768036E-03
               89                1   9.12087131E-03   13.9487637E-03               0.  -1.30435883E-03
               89                2   8.69698543E-03   12.1967494E-03               0.  -1.16770493E-03
               89                3   9.63895302E-03   13.9861954E-03               0.  -1.79698283E-03
               89                4   9.28242505E-03   12.3366211E-03               0.  -1.70992583E-03
               90                1   8.69918149E-03   9.76846181E-03               0.  -2.11229594E-03
               90                2   8.42738338E-03   9.71276686E-03               0.  -2.44755950E-03
               90                3   9.12090298E-03   10.9067149E-03               0.  -1.89302524E-03
               90                4   8.88647977E-03   10.9180873E-03               0.  -2.19918741E-03
               91                1   6.87177526E-03   6.14590524E-03               0.  -2.83535523E-03
               91                2   5.01764705E-03   5.60822105E-03               0.  -2.98173632E-03
               91                3   7.69322878E-03   6.87856367E-03               0.  -2.07021483E-03
               91                4   5.89902001E-03   6.40628161E-03               0.  -2.14311061E-03
               92                1   1.88902067E-03   2.76689394E-03               0.  -2.70130811E-03
               92                2  -4.82467143E-03   725.283928E-06               0.  -2.33987998E-03
               92                3   3.60205513E-03   2.55379244E-03               0.  -376.178185E-06
               92                4  -3.68855265E-03   246.304058E-06               0.   315.622019E-06
               93                1   6.44314522E-03   13.3503769E-03               0.  -6.02690224E-03
               93                2   4.95332479E-03   13.4441210E-03               0.  -6.99086254E-03
               93                3   8.16320069E-03   17.0734636E-03               0.  -4.93062614E-03
               93                4   6.99917646E-03   17.5995156E-03               0.  -5.68513107E-03
               94                1   3.90467513E-03   9.87678673E-03               0.  -7.22674560E-03
               94                2   2.44947290E-03   9.91505198E-03               0.  -7.78768631E-03
               94                3   5.42894192E-03   12.4382107E-03               0.  -6.21677330E-03
               94                4   4.17606300E-03   12.7905887E-03               0.  -6.64725713E-03
               95                1   2.94163241E-03   5.79973636E-03               0.  -5.93444007E-03
               95                2  -459.183415E-06   4.65595257E-03               0.  -5.43819228E-03
               95                3   4.48596943E-03   5.76746557E-03               0.  -4.72977664E-03
               95                4   1.24567561E-03   4.59667807E-03               0.  -4.05002851E-03
               96                1   8.37384071E-03   29.7251698E-03               0.   12.6179708E-03
               96                2   11.0340230E-03   27.0437580E-03               0.   13.6068352E-03
               96                3   5.22329751E-03   24.6941186E-03               0.   10.6170867E-03
               96                4   7.70411966E-03   22.6125475E-03               0.   11.5815457E-03
               97                1   4.95536486E-03   27.6390780E-03               0.   6.70687295E-03
               97                2   4.17618593E-03   25.2253581E-03               0.   8.02891701E-03
               97                3   4.23354656E-03   25.1716897E-03               0.   6.25239033E-03
               97                4   3.52233672E-03   22.9514278E-03               0.   7.38165295E-03
               98                1   4.75259451E-03   24.4451798E-03               0.   5.91169903E-03
               98                2   3.02068610E-03   22.8274558E-03               0.   6.82900380E-03
               98                3   4.85467259E-03   23.5944111E-03               0.   6.05123723E-03
               98                4   3.38290120E-03   22.0740773E-03               0.   6.86070370E-03
               99                1   3.55880940E-03   19.4465034E-03               0.   7.90147949E-03
               99                2   4.48701996E-03   20.7868516E-03               0.   8.56243353E-03
               99                3   3.74850049E-03   17.7620314E-03               0.   8.27968773E-03
               99                4   4.57411772E-03   18.6631382E-03               0.   8.90490878E-03
              100                1   6.35926193E-03   14.2568341E-03               0.   9.83827561E-03
              100                2   8.15255940E-03   15.7709457E-03               0.   10.7188439E-03
              100                3   7.52213644E-03   12.9868602E-03               0.   9.55429580E-03
              100                4   9.54029150E-03   14.3359238E-03               0.   10.4107177E-03
              101                1   5.14013693E-03   4.81826626E-03               0.   4.29802714E-03
              101                2   3.65251838E-03   3.92186828E-03               0.   5.44608617E-03
              101                3   7.16209924E-03   5.30750910E-03               0.   4.46206611E-03
              101                4   5.83107816E-03   4.50543780E-03               0.   5.48720593E-03
              102                1   1.26628357E-03   402.351958E-06               0.   284.400448E-06
              102                2   57.9737207E-06   39.7098411E-06               0.   2.76951119E-03
              102                3   7.19079841E-03   2.18046713E-03               0.   524.222909E-06
              102                4   5.55350073E-03   1.68816547E-03               0.   2.82541453E-03
              103                1   7.93953054E-03   12.3023354E-03               0.   5.18506626E-03
              103                2   5.46745490E-03   7.20961951E-03               0.   6.75942237E-03
              103                3   9.38228797E-03   11.7302379E-03               0.   4.23068227E-03
              103                4   7.30287330E-03   7.17194099E-03               0.   5.55128511E-03
              104                1   9.16215219E-03   4.44688555E-03               0.   2.01360043E-03
              104                2   8.07233807E-03   2.89806118E-03               0.   3.03639332E-03
              104                3   11.1928917E-03   4.97585861E-03               0.   1.69539230E-03
              104                4   10.1906741E-03   3.50856571E-03               0.   2.66406033E-03
              105                1   11.5090515E-03   4.34493553E-03               0.   2.31498131E-03
              105                2   13.0508170E-03   4.86057438E-03               0.   1.48723973E-03
              105                3   12.5811594E-03   6.84756041E-03               0.   1.57630048E-03
              105                4   14.0742045E-03   7.47792935E-03               0.   765.483011E-06
              106                1   13.7479538E-03   4.89209546E-03               0.   1.06359296E-03
              106                2   14.4030685E-03   5.15318569E-03               0.   246.346084E-06
              106                3   14.4345630E-03   6.99717691E-03               0.   786.011689E-06
              106                4   15.0969410E-03   7.40823196E-03               0.   6.72047554E-06
              107                1   7.75025925E-03   7.21541280E-03               0.   5.39479824E-03
              107                2   10.4294932E-03   9.01438575E-03               0.   2.87516043E-03
              107                3   10.1660145E-03   13.4650655E-03               0.   4.05834569E-03
              107                4   12.8164515E-03   15.8042219E-03               0.   1.68085098E-03
              108                1   11.0807726E-03   7.58919911E-03               0.   2.19451170E-03
              108                2   12.7510196E-03   8.83323979E-03               0.   331.481511E-06
              108                3   12.4355583E-03   11.7734503E-03               0.   1.65005832E-03
              108                4   14.1192917E-03   13.2883796E-03               0.  -146.265927E-06
              109                1   11.0824807E-03   15.2893877E-03               0.   117.000527E-06
              109                2   12.6593243E-03   20.6059385E-03               0.  -119.526419E-06
              109                3   9.64831095E-03   13.3614521E-03               0.   2.36133114E-03
              109                4   11.0719698E-03   18.3214061E-03               0.   2.25337176E-03
              110                1   8.68487544E-03   23.4737284E-03               0.   438.756426E-06
              110                2   10.9242853E-03   31.0178902E-03               0.   270.934310E-06
              110                3   7.07042823E-03   20.5934048E-03               0.   3.41529096E-03
              110                4   9.18775611E-03   27.9712155E-03               0.   3.51314317E-03
              111                1   3.09260306E-03   34.8840393E-03               0.   1.61141902E-03
              111                2   6.73381845E-03   46.9286367E-03               0.   2.07467470E-03
              111                3   3.00092832E-03   31.7546800E-03               0.   5.90915373E-03
              111                4   7.05672195E-03   44.8786318E-03               0.   6.87396480E-03
              112                1   9.11739375E-03   17.2615871E-03               0.   3.03462800E-03
              112                2   10.5986046E-03   23.3959332E-03               0.   2.62485282E-03
              112                3   5.78499585E-03   14.1149769E-03               0.   5.86848008E-03
              112                4   6.76344708E-03   19.4198918E-03               0.   5.81224589E-03
              113                1   7.24111404E-03   25.7584285E-03               0.   3.81310214E-03
              113                2   8.84290226E-03   31.3505642E-03               0.   4.14635101E-03
              113                3   6.00145757E-03   22.9028612E-03               0.   6.15432160E-03
              113                4   7.44094141E-03   28.1204693E-03               0.   6.76209386E-03
              114                1   4.09981981E-03   32.5441621E-03               0.   7.78055424E-03
              114                2   7.72097241E-03   42.2908366E-03               0.   9.69491433E-03
              114                3   6.27655769E-03   29.1320439E-03               0.   10.9930914E-03
              114                4   10.2523752E-03   38.6140123E-03               0.   13.3659123E-03
              115                1   9.23190452E-03   30.6821503E-03               0.   13.6164296E-03
              115                2   12.8445448E-03   27.2512734E-03               0.   14.7225363E-03
              115                3   5.96445845E-03   25.3376160E-03               0.   11.5056699E-03
              115                4   9.16844886E-03   22.4555954E-03               0.   12.5087965E-03
              116                1   5.58656594E-03   27.7062133E-03               0.   8.14856123E-03
              116                2   5.94403222E-03   25.3316145E-03               0.   9.08636115E-03
              116                3   4.59477212E-03   25.3824480E-03               0.   7.54789915E-03
              116                4   4.76012705E-03   23.0269209E-03               0.   8.26289412E-03
              117                1   3.57626472E-03   22.5580689E-03               0.   8.07224214E-03
              117                2   2.99628568E-03   22.4825237E-03               0.   7.93909375E-03
              117                3   2.71735922E-03   22.1431330E-03               0.   8.41713138E-03
              117                4   2.10607518E-03   22.0210832E-03               0.   8.35294090E-03
              118                1   3.26188141E-03   20.5893405E-03               0.   8.06062948E-03
              118                2   3.22431466E-03   21.7322931E-03               0.   8.42621922E-03
              118                3   2.20218068E-03   18.4134785E-03               0.   8.80223792E-03
              118                4   2.01356434E-03   19.2072596E-03               0.   9.26173851E-03
              119                1   4.94894618E-03   14.6154324E-03               0.   9.05831531E-03
              119                2   6.45131804E-03   16.0671268E-03               0.   9.85376257E-03
              119                3   5.58239687E-03   13.4203890E-03               0.   8.91264714E-03
              119                4   7.26477616E-03   14.7606190E-03               0.   9.72768385E-03
              120                1   1.24116894E-03   4.66652075E-03               0.   4.07688832E-03
              120                2  -427.591731E-06   4.75355238E-03               0.   5.44347474E-03
              120                3   4.46281862E-03   5.84173528E-03               0.   4.76629101E-03
              120                4   2.96218577E-03   5.90211712E-03               0.   5.95335010E-03
              121                1  -3.67135205E-03   232.858903E-06               0.  -304.912712E-06
              121                2  -4.79185907E-03   729.835592E-06               0.   2.34616129E-03
              121                3   3.57731315E-03   2.53324793E-03               0.   401.134312E-06
              121                4   1.90804352E-03   2.76870071E-03               0.   2.71479692E-03
              122                1   4.20729863E-03   12.8377313E-03               0.   6.67771557E-03
              122                2   2.46379105E-03   9.87806171E-03               0.   7.82717858E-03
              122                3   5.42965485E-03   12.4725420E-03               0.   6.23011403E-03
              122                4   3.88135109E-03   9.83622391E-03               0.   7.25154346E-03
              123                1   5.91458846E-03   6.44639321E-03               0.   2.14736536E-03
              123                2   5.02784410E-03   5.61907049E-03               0.   2.99134082E-03
              123                3   7.71191297E-03   6.91896211E-03               0.   2.06246041E-03
              123                4   6.86767418E-03   6.15253067E-03               0.   2.83666584E-03
              124                1   6.97468733E-03   17.5612848E-03               0.   5.68555389E-03
              124                2   4.92454739E-03   13.4175718E-03               0.   6.99510751E-03
              124                3   8.14657472E-03   17.0390401E-03               0.   4.93268063E-03
              124                4   6.42793626E-03   13.3258682E-03               0.   6.02951832E-03
              125                1   8.87134485E-03   10.8921751E-03               0.   2.19501392E-03
              125                2   8.41069873E-03   9.70207341E-03               0.   2.44903588E-03
              125                3   9.11706872E-03   10.8851846E-03               0.   1.89341174E-03
              125                4   8.69472977E-03   9.76171345E-03               0.   2.11793906E-03
              126                1   9.28257499E-03   12.3339873E-03               0.   1.71095761E-03
              126                2   8.70049000E-03   12.1945264E-03               0.   1.17050088E-03
              126                3   9.63370875E-03   13.9704924E-03               0.   1.79391669E-03
              126                4   9.11939051E-03   13.9317438E-03               0.   1.30378024E-03
              127                1   8.32036510E-03   14.9886087E-03               0.   977.391144E-06
              127                2   5.34364162E-03   14.1274408E-03               0.   606.011483E-06
              127                3   8.33575521E-03   15.9977674E-03               0.   1.93778356E-03
              127                4   5.60236676E-03   15.2793527E-03               0.   1.66739838E-03
              128                1   6.63659535E-03   14.5146307E-03               0.   5.96984429E-03
              128                2   7.76563259E-03   15.6842768E-03               0.   3.85182491E-03
              128                3   8.50057695E-03   20.0349465E-03               0.   5.14285592E-03
              128                4   9.70092975E-03   21.6911994E-03               0.   3.19532026E-03
              129                1   7.38731213E-03   16.8111213E-03               0.   4.08344297E-03
              129                2   5.75790647E-03   16.9136543E-03               0.   2.71541509E-03
              129                3   8.31846520E-03   20.3635581E-03               0.   4.51152958E-03
              129                4   6.86166156E-03   20.7229219E-03               0.   3.26524628E-03
              130                1   7.21459091E-03   23.5498678E-03               0.   3.83526576E-03
              130                2   8.88390932E-03   29.0900711E-03               0.   4.00058832E-03
              130                3   7.12630153E-03   22.0728070E-03               0.   6.04395056E-03
              130                4   8.76238756E-03   27.4518374E-03               0.   6.30005635E-03
              131                1   8.76132492E-03   33.4540345E-03               0.   4.06852923E-03
              131                2   11.2228449E-03   41.9511721E-03               0.   2.88085942E-03
              131                3   3.60942050E-03   29.6361465E-03               0.   8.05711094E-03
              131                4   5.97378099E-03   38.7607738E-03               0.   7.00257625E-03
              132                1   6.84018852E-03   23.0039079E-03               0.   5.53867035E-03
              132                2   9.03993379E-03   30.3937998E-03               0.   5.89065673E-03
              132                3   5.87689225E-03   20.2656761E-03               0.   8.53853766E-03
              132                4   7.79488869E-03   26.7837252E-03               0.   9.20260232E-03
              133                1   3.62442597E-03   31.9938473E-03               0.   9.58531164E-03
              133                2   6.86257286E-03   40.6894796E-03               0.   11.4220930E-03
              133                3   6.87247748E-03   29.0309507E-03               0.   12.6920333E-03
              133                4   10.4755182E-03   37.4127403E-03               0.   14.8688871E-03
              134                1   9.53883771E-03   14.3402591E-03               0.  -10.4059288E-03
              134                2   8.14999640E-03   15.7650635E-03               0.  -10.7155517E-03
              134                3   7.52333459E-03   12.9941320E-03               0.  -9.55166202E-03
              134                4   6.35779649E-03   14.2546846E-03               0.  -9.83641669E-03
              135                1   4.57873009E-03   18.6909363E-03               0.  -8.89453571E-03
              135                2   4.48063854E-03   20.7852442E-03               0.  -8.55873059E-03
              135                3   3.75254918E-03   17.7926030E-03               0.  -8.27374309E-03
              135                4   3.55208572E-03   19.4520149E-03               0.  -7.90068880E-03
              136                1   3.37546016E-03   22.0749937E-03               0.  -6.85906596E-03
              136                2   3.01717781E-03   22.8518583E-03               0.  -6.83173770E-03
              136                3   4.85217851E-03   23.6099679E-03               0.  -6.04328420E-03
              136                4   4.75647580E-03   24.4801324E-03               0.  -5.90627315E-03
              137                1   3.52264056E-03   22.9765531E-03               0.  -7.39723817E-03
              137                2   4.16510366E-03   25.2092239E-03               0.  -8.03432893E-03
              137                3   4.22928575E-03   25.1838043E-03               0.  -6.26197085E-03
              137                4   4.95040137E-03   27.6473947E-03               0.  -6.71545370E-03
              138                1   7.64956558E-03   22.5476101E-03               0.  -11.5200151E-03
              138                2   11.0431546E-03   27.0536188E-03               0.  -13.5822706E-03
              138                3   5.17717283E-03   24.6843416E-03               0.  -10.5747506E-03
              138                4   8.37048423E-03   29.7584850E-03               0.  -12.6009304E-03
              139                1   10.2412831E-03   38.5826230E-03               0.  -13.3448625E-03
              139                2   7.73443282E-03   42.2243737E-03               0.  -9.69180092E-03
              139                3   6.24984037E-03   29.0944520E-03               0.  -10.9545710E-03
              139                4   4.08298336E-03   32.4416980E-03               0.  -7.75250699E-03
              140                1   7.10176863E-03   44.8747315E-03               0.  -6.89775869E-03
              140                2   6.73991349E-03   46.9079241E-03               0.  -2.07694829E-03
              140                3   3.03584174E-03   31.7451023E-03               0.  -5.89829916E-03
              140                4   3.08137806E-03   34.8126590E-03               0.  -1.59630144E-03
              141                1   7.41152233E-03   28.0674808E-03               0.  -6.73927879E-03
              141                2   8.82827211E-03   31.2792696E-03               0.  -4.12231358E-03
              141                3   6.00235024E-03   22.9438934E-03               0.  -6.15603803E-03
              141                4   7.26509653E-03   25.8171298E-03               0.  -3.81578761E-03
              142                1   9.17729456E-03   27.9639177E-03               0.  -3.51492898E-03
              142                2   10.9177651E-03   30.9949797E-03               0.  -265.643612E-06
              142                3   7.05489004E-03   20.5797665E-03               0.  -3.43429251E-03
              142                4   8.69698171E-03   23.5168748E-03               0.  -438.725256E-06
              143                1   6.76189736E-03   19.4876250E-03               0.  -5.81452623E-03
              143                2   10.5953710E-03   23.4841220E-03               0.  -2.62598647E-03
              143                3   5.77860838E-03   14.1689647E-03               0.  -5.86957345E-03
              143                4   9.10480041E-03   17.3133947E-03               0.  -3.03556002E-03
              144                1   11.0517731E-03   18.3225721E-03               0.  -2.24958453E-03
              144                2   12.6665337E-03   20.6502043E-03               0.   121.623707E-06
              144                3   9.63104051E-03   13.3683942E-03               0.  -2.36219494E-03
              144                4   11.0898092E-03   15.3328227E-03               0.  -120.205026E-06
              145                1   14.1267711E-03   13.3272279E-03               0.   149.518266E-06
              145                2   12.7519760E-03   8.85006599E-03               0.  -331.926567E-06
              145                3   12.4287196E-03   11.7856720E-03               0.  -1.65124913E-03
              145                4   11.0714035E-03   7.59048760E-03               0.  -2.19692755E-03
              146                1   15.0991715E-03   7.41893565E-03               0.  -4.91177434E-06
              146                2   14.4028580E-03   5.15574357E-03               0.  -245.503121E-06
              146                3   14.4338552E-03   7.00369477E-03               0.  -786.184333E-06
              146                4   13.7456963E-03   4.89306543E-03               0.  -1.06426387E-03
              147                1   12.8115984E-03   15.8374961E-03               0.  -1.68357533E-03
              147                2   10.4222959E-03   9.02805291E-03               0.  -2.87532783E-03
              147                3   10.1686260E-03   13.5064386E-03               0.  -4.05981438E-03
              147                4   7.74898008E-03   7.23488117E-03               0.  -5.39568625E-03
              148                1   14.0709402E-03   7.47824367E-03               0.  -767.360441E-06
              148                2   13.0487559E-03   4.86052781E-03               0.  -1.48808595E-03
              148                3   12.5810662E-03   6.85000792E-03               0.  -1.57711364E-03
              148                4   11.5095517E-03   4.34599863E-03               0.  -2.31523416E-03
              149                1   10.1923011E-03   3.51038831E-03               0.  -2.66440446E-03
              149                2   8.07512272E-03   2.90042604E-03               0.  -3.03756609E-03
              149                3   11.1942245E-03   4.98085096E-03               0.  -1.69572851E-03
              149                4   9.16526839E-03   4.45305929E-03               0.  -2.01442651E-03
              150                1   5.55641996E-03   1.68860110E-03               0.  -2.82724691E-03
              150                2   62.4186068E-06   40.5679384E-06               0.  -2.77063902E-03
              150                3   7.19086686E-03   2.17864220E-03               0.  -527.177181E-06
              150                4   1.26968278E-03   401.377591E-06               0.  -285.846007E-06
              151                1   7.29824090E-03   7.18401186E-03               0.  -5.55482088E-03
              151                2   5.47499815E-03   7.22864736E-03               0.  -6.76069362E-03
              151                3   9.36804805E-03   11.7334900E-03               0.  -4.24161553E-03
              151                4   7.93886278E-03   12.3150731E-03               0.  -5.19252708E-03
              152                1   5.83520345E-03   4.51440550E-03               0.  -5.49074914E-03
              152                2   3.65908933E-03   3.93088302E-03               0.  -5.44741098E-03
              152                3   7.16147898E-03   5.30929631E-03               0.  -4.46816767E-03
              152                4   5.14240051E-03   4.81963018E-03               0.  -4.30195732E-03


********************************************************************************
Field Output Report, written Tue Jun 03 12:18:16 2025

Source 1
---------

   ODB: C:/lnms/Vid/VF/LinearnaPolja/PoljeU2/PoljeU2.odb
   Step: loading
   Frame: Increment      8: Step Time =   0.8000

Loc 1 : Integration point values from source 1

Output sorted by column "Element Label".

Field Output reported at integration points for part: SPECIMEN-1

          Element              Int            S.S11            S.S22            S.S33            S.S12
            Label               Pt           @Loc 1           @Loc 1           @Loc 1           @Loc 1
-------------------------------------------------------------------------------------------------------
                1                1   10.8788963E-03   16.4497141E-03               0.  -11.8844276E-03
                1                2   9.27121472E-03   18.0720575E-03               0.  -12.2346813E-03
                1                3   8.56815930E-03   14.9004404E-03               0.  -10.9029356E-03
                1                4   7.21806800E-03   16.3365602E-03               0.  -11.2254722E-03
                2                1   5.21606440E-03   21.3604327E-03               0.  -10.1240007E-03
                2                2   5.10009984E-03   23.7189475E-03               0.  -9.74102225E-03
                2                3   4.28214483E-03   20.3406736E-03               0.  -9.42270458E-03
                2                4   4.05111490E-03   22.2087242E-03               0.  -8.99824500E-03
                3                1   3.85433924E-03   25.1823999E-03               0.  -7.81292841E-03
                3                2   3.45982984E-03   26.0769259E-03               0.  -7.78532261E-03
                3                3   5.52346930E-03   26.9276742E-03               0.  -6.88708760E-03
                3                4   5.42417681E-03   27.9262532E-03               0.  -6.73454301E-03
                4                1   4.03711759E-03   26.2360815E-03               0.  -8.43069423E-03
                4                2   4.77859052E-03   28.7787076E-03               0.  -9.15535633E-03
                4                3   4.81707230E-03   28.7246723E-03               0.  -7.14477710E-03
                4                4   5.64428326E-03   31.5256603E-03               0.  -7.66162807E-03
                5                1   8.69192183E-03   25.8111991E-03               0.  -13.1340707E-03
                5                2   12.5509119E-03   30.9595652E-03               0.  -15.4819209E-03
                5                3   5.86032122E-03   28.2267891E-03               0.  -12.0456861E-03
                5                4   9.49109439E-03   34.0179019E-03               0.  -14.3516054E-03
                6                1   11.5869185E-03   44.0378897E-03               0.  -15.1762599E-03
                6                2   8.74351431E-03   48.1385216E-03               0.  -11.0250618E-03
                6                3   7.06867874E-03   33.2633257E-03               0.  -12.4768922E-03
                6                4   4.60756896E-03   37.0382704E-03               0.  -8.83317646E-03
                7                1   8.01446941E-03   51.1315763E-03               0.  -7.82879256E-03
                7                2   7.61066703E-03   53.4268506E-03               0.  -2.36846437E-03
                7                3   3.40809254E-03   36.2472348E-03               0.  -6.70632115E-03
                7                4   3.46494978E-03   39.7201441E-03               0.  -1.82530610E-03
                8                1   8.43368750E-03   32.0473313E-03               0.  -7.70952646E-03
                8                2   10.0149894E-03   35.6813930E-03               0.  -4.73127048E-03
                8                3   6.81819255E-03   26.2015890E-03               0.  -7.04259565E-03
                8                4   8.22782796E-03   29.4553563E-03               0.  -4.37764265E-03
                9                1   10.3906896E-03   31.9347195E-03               0.  -4.01931489E-03
                9                2   12.3643493E-03   35.3783108E-03               0.  -319.193379E-06
                9                3   7.97042251E-03   23.5182457E-03               0.  -3.92869441E-03
                9                4   9.83391982E-03   26.8591866E-03               0.  -514.360901E-06
               10                1   7.69258011E-03   22.2677905E-03               0.  -6.64847484E-03
               10                2   12.0333768E-03   26.7972704E-03               0.  -3.02070472E-03
               10                3   6.56220643E-03   16.2014011E-03               0.  -6.71057217E-03
               10                4   10.3284726E-03   19.7663289E-03               0.  -3.48378834E-03
               11                1   12.5382552E-03   20.9417753E-03               0.  -2.58000637E-03
               11                2   14.3728890E-03   23.5925633E-03               0.   126.068175E-06
               11                3   10.9145502E-03   15.2832698E-03               0.  -2.70829629E-03
               11                4   12.5722690E-03   17.5215714E-03               0.  -147.983548E-06
               12                1   16.0494708E-03   15.2323460E-03               0.   161.954158E-06
               12                2   14.4778211E-03   10.1142703E-03               0.  -385.242834E-06
               12                3   14.1192460E-03   13.4757087E-03               0.  -1.89537730E-03
               12                4   12.5673674E-03   8.67916271E-03               0.  -2.51739006E-03
               13                1   17.1731226E-03   8.47566593E-03               0.  -10.6723910E-06
               13                2   16.3723882E-03   5.87235112E-03               0.  -283.934583E-06
               13                3   16.4176002E-03   8.00139457E-03               0.  -908.883114E-06
               13                4   15.6267639E-03   5.57364989E-03               0.  -1.22579723E-03
               14                1   14.5584680E-03   18.0819444E-03               0.  -1.94191304E-03
               14                2   11.8342219E-03   10.3188548E-03               0.  -3.29846400E-03
               14                3   11.5584927E-03   15.4363029E-03               0.  -4.64932155E-03
               14                4   8.79885349E-03   8.28559883E-03               0.  -6.17270079E-03
               15                1   16.0074439E-03   8.54227785E-03               0.  -896.030513E-06
               15                2   14.8369968E-03   5.53818373E-03               0.  -1.71542144E-03
               15                3   14.3178497E-03   7.82850105E-03               0.  -1.82460248E-03
               15                4   13.0916573E-03   4.95507428E-03               0.  -2.66479421E-03
               16                1   11.5967691E-03   4.00397088E-03               0.  -3.06765898E-03
               16                2   9.19572543E-03   3.31351138E-03               0.  -3.49810021E-03
               16                3   12.7424188E-03   5.69715258E-03               0.  -1.96673558E-03
               16                4   10.4423799E-03   5.10135619E-03               0.  -2.33482453E-03
               17                1   6.33022189E-03   1.92883983E-03               0.  -3.25935776E-03
               17                2   66.2518141E-06   49.9214002E-06               0.  -3.19400313E-03
               17                3   8.20131321E-03   2.49160663E-03               0.  -638.571859E-06
               17                4   1.45235180E-03   465.888443E-06               0.  -360.525533E-06
               18                1   8.29144008E-03   8.22790898E-03               0.  -6.35638973E-03
               18                2   6.21701637E-03   8.28758348E-03               0.  -7.72956526E-03
               18                3   10.6538227E-03   13.4121655E-03               0.  -4.85776085E-03
               18                4   9.02982149E-03   14.0828164E-03               0.  -5.93927130E-03
               19                1   6.65664952E-03   5.19176433E-03               0.  -6.28779549E-03
               19                2   4.20968933E-03   4.53886203E-03               0.  -6.24046475E-03
               19                3   8.16152152E-03   6.10182341E-03               0.  -5.13573457E-03
               19                4   5.89331612E-03   5.55648562E-03               0.  -4.94972011E-03
               20                1   8.34998954E-03   16.8873221E-03               0.  -11.1109056E-03
               20                2   7.38683948E-03   18.4724629E-03               0.  -11.2512242E-03
               20                3   6.35108538E-03   15.2798900E-03               0.  -10.1353247E-03
               20                4   5.61548537E-03   16.7403482E-03               0.  -10.3074331E-03
               21                1   2.33826158E-03   21.9513141E-03               0.  -10.5540361E-03
               21                2   3.70830158E-03   24.8270240E-03               0.  -9.60890017E-03
               21                3   2.54381937E-03   21.0361835E-03               0.  -10.0298971E-03
               21                4   3.74379428E-03   23.4964322E-03               0.  -9.18429811E-03
               22                1   2.40334659E-03   25.1716245E-03               0.  -9.48530249E-03
               22                2   3.42384609E-03   25.6336182E-03               0.  -9.02965944E-03
               22                3   3.11611244E-03   25.3356490E-03               0.  -9.57688875E-03
               22                4   4.10005124E-03   25.7573053E-03               0.  -9.19950102E-03
               23                1   5.44563076E-03   26.2987819E-03               0.  -9.42982826E-03
               23                2   6.79381052E-03   28.9271139E-03               0.  -10.3655970E-03
               23                3   5.24349092E-03   28.9680231E-03               0.  -8.60812888E-03
               23                4   6.37259753E-03   31.6201113E-03               0.  -9.29011963E-03
               24                1   10.4169697E-03   25.7162731E-03               0.  -14.2695690E-03
               24                2   14.5712150E-03   31.1655942E-03               0.  -16.7754646E-03
               24                3   6.76783826E-03   28.9643090E-03               0.  -13.1134195E-03
               24                4   10.4608731E-03   35.0358859E-03               0.  -15.5023485E-03
               25                1   11.8482448E-03   42.6994748E-03               0.  -16.9126410E-03
               25                2   7.75739970E-03   46.3988520E-03               0.  -12.9979178E-03
               25                3   7.77515396E-03   33.1871957E-03               0.  -14.4567722E-03
               25                4   4.09395853E-03   36.5390331E-03               0.  -10.9232990E-03
               26                1   6.77097728E-03   44.2245677E-03               0.  -7.91671965E-03
               26                2   12.7967978E-03   47.8656217E-03               0.  -3.22883646E-03
               26                3   4.08001384E-03   33.8380262E-03               0.  -9.13925190E-03
               26                4   9.99843609E-03   38.2025167E-03               0.  -4.59377561E-03
               27                1   8.85356124E-03   30.6202359E-03               0.  -10.4973251E-03
               27                2   10.2807190E-03   34.7320251E-03               0.  -6.71999948E-03
               27                3   6.66326005E-03   23.1709387E-03               0.  -9.75253340E-03
               27                4   7.77161820E-03   26.3017472E-03               0.  -6.32638484E-03
               28                1   9.95411817E-03   31.3542038E-03               0.  -7.14492239E-03
               28                2   10.1372674E-03   33.2355723E-03               0.  -4.52431897E-03
               28                3   8.09259247E-03   25.2252035E-03               0.  -6.86696498E-03
               28                4   8.23653117E-03   26.9251820E-03               0.  -4.34768060E-03
               29                1   7.83814117E-03   23.7045605E-03               0.  -3.70412366E-03
               29                2   6.57780329E-03   19.3579160E-03               0.  -3.08531313E-03
               29                3   9.47011169E-03   23.2833941E-03               0.  -5.12524880E-03
               29                4   8.40578414E-03   19.2282535E-03               0.  -4.64607589E-03
               30                1   6.40479336E-03   17.4936634E-03               0.  -1.89414970E-03
               30                2   6.10687351E-03   16.1777139E-03               0.  -688.819215E-06
               30                3   9.50428378E-03   18.3067787E-03               0.  -2.20218953E-03
               30                4   9.47975088E-03   17.1530917E-03               0.  -1.11216656E-03
               31                1   11.0457893E-03   24.8158090E-03               0.  -3.64796096E-03
               31                2   8.83971341E-03   17.9671291E-03               0.  -4.39602602E-03
               31                3   9.68785211E-03   22.9298342E-03               0.  -5.86120086E-03
               31                4   7.56144617E-03   16.6317672E-03               0.  -6.80658687E-03
               32                1   10.3911757E-03   15.9724895E-03               0.  -1.48703216E-03
               32                2   9.90862679E-03   13.9775500E-03               0.  -1.33153261E-03
               32                3   10.9811109E-03   16.0153788E-03               0.  -2.04796134E-03
               32                4   10.5753075E-03   14.1372010E-03               0.  -1.94908585E-03
               33                1   9.90937836E-03   11.2015996E-03               0.  -2.41052196E-03
               33                2   9.60874092E-03   11.1412583E-03               0.  -2.79217586E-03
               33                3   10.3867538E-03   12.4962088E-03               0.  -2.16426724E-03
               33                4   10.1281181E-03   12.5119975E-03               0.  -2.51292810E-03
               34                1   7.83728529E-03   7.05494173E-03               0.  -3.23935389E-03
               34                2   5.74358506E-03   6.44831685E-03               0.  -3.40617029E-03
               34                3   8.76808446E-03   7.88852572E-03               0.  -2.37474684E-03
               34                4   6.74265483E-03   7.35648768E-03               0.  -2.45834282E-03
               35                1   2.18155864E-03   3.17470380E-03               0.  -3.09072528E-03
               35                2  -5.45403734E-03   851.961377E-06               0.  -2.67601991E-03
               35                3   4.13473137E-03   2.92844349E-03               0.  -449.462474E-06
               35                4  -4.15482838E-03   302.412489E-06               0.   343.826046E-06
               36                1   7.33356876E-03   15.2870975E-03               0.  -6.88189641E-03
               36                2   5.64171234E-03   15.3974816E-03               0.  -7.97390938E-03
               36                3   9.28806886E-03   19.5089579E-03               0.  -5.63569926E-03
               36                4   7.96710327E-03   20.1090854E-03               0.  -6.48932392E-03
               37                1   4.44562314E-03   11.3277836E-03               0.  -8.24952871E-03
               37                2   2.78637372E-03   11.3745546E-03               0.  -8.88550282E-03
               37                3   6.18602289E-03   14.2413341E-03               0.  -7.09717022E-03
               37                4   4.75838920E-03   14.6453232E-03               0.  -7.58399582E-03
               38                1   3.36761284E-03   6.66980399E-03               0.  -6.78896531E-03
               38                2  -476.137968E-06   5.37523115E-03               0.  -6.22371724E-03
               38                3   5.12588490E-03   6.63633505E-03               0.  -5.42983785E-03
               38                4   1.46637950E-03   5.31147979E-03               0.  -4.65690717E-03
               39                1   10.4646171E-03   35.0344852E-03               0.   15.5048417E-03
               39                2   14.5772779E-03   31.1629493E-03               0.   16.7763196E-03
               39                3   6.76437374E-03   28.9589763E-03               0.   13.1120253E-03
               39                4   10.4143666E-03   25.7049836E-03               0.   14.2656136E-03
               40                1   6.36250293E-03   31.6065326E-03               0.   9.29592550E-03
               40                2   6.79233624E-03   28.9214496E-03               0.   10.3621436E-03
               40                3   5.23037184E-03   28.9591085E-03               0.   8.61041900E-03
               40                4   5.43788774E-03   26.2918323E-03               0.   9.42318793E-03
               41                1   4.09331638E-03   25.7550366E-03               0.   9.19785909E-03
               41                2   3.42282304E-03   25.6562699E-03               0.   9.03842691E-03
               41                3   3.10716848E-03   25.2964813E-03               0.   9.58775170E-03
               41                4   2.40133819E-03   25.1486748E-03               0.   9.50766355E-03
               42                1   3.72314663E-03   23.5156640E-03               0.   9.17448848E-03
               42                2   3.67549504E-03   24.8096697E-03               0.   9.58306249E-03
               42                3   2.51672510E-03   21.0588649E-03               0.   10.0182733E-03
               42                4   2.29717302E-03   21.9589267E-03               0.   10.5340211E-03
               43                1   5.62529918E-03   16.7600010E-03               0.   10.3404559E-03
               43                2   7.35289697E-03   18.4322502E-03               0.   11.2557905E-03
               43                3   6.36638375E-03   15.3961647E-03               0.   10.1746693E-03
               43                4   8.30268022E-03   16.9425271E-03               0.   11.1129265E-03
               44                1   1.46090146E-03   5.39119262E-03               0.   4.68718866E-03
               44                2  -440.469332E-06   5.48654934E-03               0.   6.22954033E-03
               44                3   5.09923929E-03   6.72113989E-03               0.   5.47101116E-03
               44                4   3.39064747E-03   6.78658113E-03               0.   6.81020506E-03
               45                1  -4.13522543E-03   287.318864E-06               0.  -331.479241E-06
               45                2  -5.41666942E-03   857.202802E-06               0.   2.68324045E-03
               45                3   4.10637353E-03   2.90522445E-03               0.   477.906986E-06
               45                4   2.20299372E-03   3.17676063E-03               0.   3.10609443E-03
               46                1   4.79380088E-03   14.6991778E-03               0.   7.61852087E-03
               46                2   2.80236080E-03   11.3325920E-03               0.   8.93055834E-03
               46                3   6.18691975E-03   14.2805725E-03               0.   7.11219385E-03
               46                4   4.41899477E-03   11.2817399E-03               0.   8.27779155E-03
               47                1   6.76038116E-03   7.40229338E-03               0.   2.46318849E-03
               47                2   5.75510506E-03   6.46070531E-03               0.   3.41712078E-03
               47                3   8.78936797E-03   7.93463551E-03               0.   2.36593466E-03
               47                4   7.83270318E-03   7.06255902E-03               0.   3.24085052E-03
               48                1   7.93930981E-03   20.0655032E-03               0.   6.48978399E-03
               48                2   5.60901035E-03   15.3671699E-03               0.   7.97871035E-03
               48                3   9.26923193E-03   19.4697026E-03               0.   5.63802710E-03
               48                4   7.31631275E-03   15.2590983E-03               0.   6.88487384E-03
               49                1   10.1108672E-03   12.4823647E-03               0.   2.50816275E-03
               49                2   9.58981737E-03   11.1290636E-03               0.   2.79382779E-03
               49                3   10.3823598E-03   12.4715734E-03               0.   2.16471939E-03
               49                4   9.90436133E-03   11.1938976E-03               0.   2.41694693E-03
               50                1   10.5755301E-03   14.1342012E-03               0.   1.95025199E-03
               50                2   9.91260447E-03   13.9749981E-03               0.   1.33472169E-03
               50                3   10.9751653E-03   15.9974527E-03               0.   2.04449124E-03
               50                4   10.3894528E-03   15.9530453E-03               0.   1.48640724E-03
               51                1   9.48402286E-03   17.1545800E-03               0.   1.11233594E-03
               51                2   6.10764325E-03   16.1779970E-03               0.   688.587141E-06
               51                3   9.50366817E-03   18.3057524E-03               0.   2.20123050E-03
               51                4   6.40369765E-03   17.4917802E-03               0.   1.89268659E-03
               52                1   7.55664753E-03   16.6221242E-03               0.   6.80907397E-03
               52                2   8.83658230E-03   17.9484803E-03               0.   4.39528516E-03
               52                3   9.67977848E-03   22.9105577E-03               0.   5.86628169E-03
               52                4   11.0405395E-03   24.7909725E-03               0.   3.64848459E-03
               53                1   8.41183588E-03   19.2295387E-03               0.   4.64492152E-03
               53                2   6.57855719E-03   19.3544663E-03               0.   3.08341347E-03
               53                3   9.47568752E-03   23.2808162E-03               0.   5.12546208E-03
               53                4   7.83824921E-03   23.6983113E-03               0.   3.70322913E-03
               54                1   8.23524222E-03   26.9183684E-03               0.   4.34743380E-03
               54                2   10.1361703E-03   33.2291350E-03               0.   4.52495599E-03
               54                3   8.09434894E-03   25.2220966E-03               0.   6.86786277E-03
               54                4   9.95579455E-03   31.3499980E-03               0.   7.14735873E-03
               55                1   9.99714062E-03   38.1968804E-03               0.   4.59424034E-03
               55                2   12.7952695E-03   47.8608087E-03               0.   3.23037733E-03
               55                3   4.08254098E-03   33.8364355E-03               0.   9.13879089E-03
               55                4   6.77068811E-03   44.2203172E-03               0.   7.91934878E-03
               56                1   7.76695693E-03   26.2857433E-03               0.   6.32179389E-03
               56                2   10.2745080E-03   34.7083360E-03               0.   6.72085490E-03
               56                3   6.67149993E-03   23.1746137E-03               0.   9.74368211E-03
               56                4   8.85852892E-03   30.6085963E-03               0.   10.4958573E-03
               57                1   4.09173779E-03   36.5277641E-03               0.   10.9188966E-03
               57                2   7.75902206E-03   46.3880897E-03               0.   12.9972547E-03
               57                3   7.77570764E-03   33.1827179E-03               0.   14.4507075E-03
               57                4   11.8527785E-03   42.6924080E-03               0.   16.9104654E-03
               58                1   9.49457940E-03   33.9804851E-03               0.   14.3708969E-03
               58                2   12.5404671E-03   30.9488401E-03               0.   15.5097088E-03
               58                3   5.91223594E-03   28.2383393E-03               0.   12.0936641E-03
               58                4   8.75361823E-03   25.8857012E-03               0.   13.2038323E-03
               59                1   5.64991264E-03   31.5165818E-03               0.   7.65215233E-03
               59                2   4.79158433E-03   28.7972130E-03               0.   9.14956536E-03
               59                3   4.82161017E-03   28.7108812E-03               0.   7.13398773E-03
               59                4   4.03665798E-03   26.2072422E-03               0.   8.41313507E-03
               60                1   5.41977677E-03   27.8866217E-03               0.   6.74067810E-03
               60                2   3.46362335E-03   26.0490254E-03               0.   7.78214028E-03
               60                3   5.52632846E-03   26.9101001E-03               0.   6.89608650E-03
               60                4   3.86270951E-03   25.1813047E-03               0.   7.81472400E-03
               61                1   4.05872194E-03   22.2023856E-03               0.   8.99913069E-03
               61                2   5.10734553E-03   23.7207711E-03               0.   9.74521693E-03
               61                3   4.27752500E-03   20.3059148E-03               0.   9.42949578E-03
               61                4   5.21082571E-03   21.3289149E-03               0.   10.1358276E-03
               62                1   7.21974159E-03   16.3390171E-03               0.   11.2275975E-03
               62                2   9.27409623E-03   18.0787388E-03               0.   12.2384066E-03
               62                3   8.56679026E-03   14.8922158E-03               0.   10.9059531E-03
               62                4   10.8805252E-03   16.4448302E-03               0.   11.8898768E-03
               63                1   5.89078292E-03   5.55490889E-03               0.   4.94525814E-03
               63                2   4.20225551E-03   4.52858629E-03               0.   6.23896671E-03
               63                3   8.16225074E-03   6.09975122E-03               0.   5.12881624E-03
               63                4   6.65199012E-03   5.18153142E-03               0.   6.28378429E-03
               64                1   1.44847331E-03   466.970494E-06               0.   358.878839E-06
               64                2   61.1861760E-06   48.9348604E-06               0.   3.19272280E-03
               64                3   8.20124522E-03   2.49366253E-03               0.   635.213451E-06
               64                4   6.32690685E-03   1.92833808E-03               0.   3.25727952E-03
               65                1   9.03061777E-03   14.0682589E-03               0.   5.93081489E-03
               65                2   6.20844215E-03   8.26589204E-03               0.   7.72815384E-03
               65                3   10.6700677E-03   13.4084020E-03               0.   4.84536076E-03
               65                4   8.29673558E-03   8.21413938E-03               0.   6.35240925E-03
               66                1   10.4388408E-03   5.09431073E-03               0.   2.33388995E-03
               66                2   9.19256825E-03   3.31081427E-03               0.   3.49677494E-03
               66                3   12.7409147E-03   5.69146220E-03               0.   1.96635793E-03
               66                4   11.5949363E-03   4.00189683E-03               0.   3.06727760E-03
               67                1   13.0911097E-03   4.95385658E-03               0.   2.66451621E-03
               67                2   14.8393726E-03   5.53823449E-03               0.   1.71446777E-03
               67                3   14.3179689E-03   7.82567915E-03               0.   1.82367896E-03
               67                4   16.0111785E-03   8.54189601E-03               0.   893.893652E-06
               68                1   15.6293586E-03   5.57255186E-03               0.   1.22503948E-03
               68                2   16.3726304E-03   5.86942909E-03               0.   284.896174E-06
               68                3   16.4184235E-03   7.99396634E-03               0.   908.694114E-06
               68                4   17.1705727E-03   8.46343394E-03               0.   12.7369403E-06
               69                1   8.80032964E-03   8.26336443E-03               0.   6.17172616E-03
               69                2   11.8424706E-03   10.3032617E-03               0.   3.29829520E-03
               69                3   11.5555385E-03   15.3891388E-03               0.   4.64768056E-03
               69                4   14.5640410E-03   18.0440396E-03               0.   1.93881977E-03
               70                1   12.5781056E-03   8.67769774E-03               0.   2.51464173E-03
               70                2   14.4767230E-03   10.0950357E-03               0.   384.727551E-06
               70                3   14.1270813E-03   13.4617649E-03               0.   1.89403410E-03
               70                4   16.0409231E-03   15.1879825E-03               0.  -158.248848E-06
               71                1   12.5639169E-03   17.4719729E-03               0.   144.323640E-06
               71                2   14.3646728E-03   23.5420335E-03               0.  -123.661579E-06
               71                3   10.9343566E-03   15.2753824E-03               0.   2.70731840E-03
               71                4   12.5613920E-03   20.9404659E-03               0.   2.58434890E-03
               72                1   9.82007850E-03   26.8099625E-03               0.   514.361192E-06
               72                2   12.3717599E-03   35.4044065E-03               0.   325.148576E-06
               72                3   7.98790995E-03   23.5336535E-03               0.   3.90704442E-03
               72                4   10.4024122E-03   31.9429748E-03               0.   4.01724409E-03
               73                1   3.47774080E-03   39.8013368E-03               0.   1.84240786E-03
               73                2   7.60372449E-03   53.4502454E-03               0.   2.36585783E-03
               73                3   3.36856442E-03   36.2583846E-03               0.   6.71846373E-03
               73                4   7.96344969E-03   51.1359014E-03               0.   7.80167663E-03
               74                1   10.3428653E-03   19.7073091E-03               0.   3.48272058E-03
               74                2   12.0370369E-03   26.6967379E-03               0.   3.01935431E-03
               74                3   6.56941487E-03   16.1398742E-03               0.   6.70930045E-03
               74                4   7.69422203E-03   22.1905299E-03               0.   6.64581591E-03
               75                1   8.20049737E-03   29.3885097E-03               0.   4.37436718E-03
               75                2   10.0318510E-03   35.7627608E-03               0.   4.75841900E-03
               75                3   6.81685377E-03   26.1547919E-03               0.   7.04050157E-03
               75                4   8.46698601E-03   32.1077891E-03               0.   7.73531012E-03
               76                1   4.62637655E-03   37.1551663E-03               0.   8.86493176E-03
               76                2   8.72773584E-03   48.2138731E-03               0.   11.0284351E-03
               76                3   7.09849969E-03   33.3068743E-03               0.   12.5204967E-03
               76                4   11.5987621E-03   44.0737419E-03               0.   15.1998643E-03
               77                1   8.34998954E-03   16.8873221E-03               0.  -11.1109056E-03
               77                2   7.38683948E-03   18.4724629E-03               0.  -11.2512242E-03
               77                3   6.35108538E-03   15.2798900E-03               0.  -10.1353247E-03
               77                4   5.61548537E-03   16.7403482E-03               0.  -10.3074331E-03
               78                1   2.33826158E-03   21.9513141E-03               0.  -10.5540361E-03
               78                2   3.70830158E-03   24.8270240E-03               0.  -9.60890017E-03
               78                3   2.54381937E-03   21.0361835E-03               0.  -10.0298971E-03
               78                4   3.74379428E-03   23.4964322E-03               0.  -9.18429811E-03
               79                1   2.40334659E-03   25.1716245E-03               0.  -9.48530249E-03
               79                2   3.42384609E-03   25.6336182E-03               0.  -9.02965944E-03
               79                3   3.11611244E-03   25.3356490E-03               0.  -9.57688875E-03
               79                4   4.10005124E-03   25.7573053E-03               0.  -9.19950102E-03
               80                1   5.44563076E-03   26.2987819E-03               0.  -9.42982826E-03
               80                2   6.79381052E-03   28.9271139E-03               0.  -10.3655970E-03
               80                3   5.24349092E-03   28.9680231E-03               0.  -8.60812888E-03
               80                4   6.37259753E-03   31.6201113E-03               0.  -9.29011963E-03
               81                1   10.4169697E-03   25.7162731E-03               0.  -14.2695690E-03
               81                2   14.5712150E-03   31.1655942E-03               0.  -16.7754646E-03
               81                3   6.76783826E-03   28.9643090E-03               0.  -13.1134195E-03
               81                4   10.4608731E-03   35.0358859E-03               0.  -15.5023485E-03
               82                1   11.8482448E-03   42.6994748E-03               0.  -16.9126410E-03
               82                2   7.75739970E-03   46.3988520E-03               0.  -12.9979178E-03
               82                3   7.77515396E-03   33.1871957E-03               0.  -14.4567722E-03
               82                4   4.09395853E-03   36.5390331E-03               0.  -10.9232990E-03
               83                1   6.77097728E-03   44.2245677E-03               0.  -7.91671965E-03
               83                2   12.7967978E-03   47.8656217E-03               0.  -3.22883646E-03
               83                3   4.08001384E-03   33.8380262E-03               0.  -9.13925190E-03
               83                4   9.99843609E-03   38.2025167E-03               0.  -4.59377561E-03
               84                1   8.85356124E-03   30.6202359E-03               0.  -10.4973251E-03
               84                2   10.2807190E-03   34.7320251E-03               0.  -6.71999948E-03
               84                3   6.66326005E-03   23.1709387E-03               0.  -9.75253340E-03
               84                4   7.77161820E-03   26.3017472E-03               0.  -6.32638484E-03
               85                1   9.95411817E-03   31.3542038E-03               0.  -7.14492239E-03
               85                2   10.1372674E-03   33.2355723E-03               0.  -4.52431897E-03
               85                3   8.09259247E-03   25.2252035E-03               0.  -6.86696498E-03
               85                4   8.23653117E-03   26.9251820E-03               0.  -4.34768060E-03
               86                1   7.83814117E-03   23.7045605E-03               0.  -3.70412366E-03
               86                2   6.57780329E-03   19.3579160E-03               0.  -3.08531313E-03
               86                3   9.47011169E-03   23.2833941E-03               0.  -5.12524880E-03
               86                4   8.40578414E-03   19.2282535E-03               0.  -4.64607589E-03
               87                1   6.40479336E-03   17.4936634E-03               0.  -1.89414970E-03
               87                2   6.10687351E-03   16.1777139E-03               0.  -688.819215E-06
               87                3   9.50428378E-03   18.3067787E-03               0.  -2.20218953E-03
               87                4   9.47975088E-03   17.1530917E-03               0.  -1.11216656E-03
               88                1   11.0457893E-03   24.8158090E-03               0.  -3.64796096E-03
               88                2   8.83971341E-03   17.9671291E-03               0.  -4.39602602E-03
               88                3   9.68785211E-03   22.9298342E-03               0.  -5.86120086E-03
               88                4   7.56144617E-03   16.6317672E-03               0.  -6.80658687E-03
               89                1   10.3911757E-03   15.9724895E-03               0.  -1.48703216E-03
               89                2   9.90862679E-03   13.9775500E-03               0.  -1.33153261E-03
               89                3   10.9811109E-03   16.0153788E-03               0.  -2.04796134E-03
               89                4   10.5753075E-03   14.1372010E-03               0.  -1.94908585E-03
               90                1   9.90937836E-03   11.2015996E-03               0.  -2.41052196E-03
               90                2   9.60874092E-03   11.1412583E-03               0.  -2.79217586E-03
               90                3   10.3867538E-03   12.4962088E-03               0.  -2.16426724E-03
               90                4   10.1281181E-03   12.5119975E-03               0.  -2.51292810E-03
               91                1   7.83728529E-03   7.05494173E-03               0.  -3.23935389E-03
               91                2   5.74358506E-03   6.44831685E-03               0.  -3.40617029E-03
               91                3   8.76808446E-03   7.88852572E-03               0.  -2.37474684E-03
               91                4   6.74265483E-03   7.35648768E-03               0.  -2.45834282E-03
               92                1   2.18155864E-03   3.17470380E-03               0.  -3.09072528E-03
               92                2  -5.45403734E-03   851.961377E-06               0.  -2.67601991E-03
               92                3   4.13473137E-03   2.92844349E-03               0.  -449.462474E-06
               92                4  -4.15482838E-03   302.412489E-06               0.   343.826046E-06
               93                1   7.33356876E-03   15.2870975E-03               0.  -6.88189641E-03
               93                2   5.64171234E-03   15.3974816E-03               0.  -7.97390938E-03
               93                3   9.28806886E-03   19.5089579E-03               0.  -5.63569926E-03
               93                4   7.96710327E-03   20.1090854E-03               0.  -6.48932392E-03
               94                1   4.44562314E-03   11.3277836E-03               0.  -8.24952871E-03
               94                2   2.78637372E-03   11.3745546E-03               0.  -8.88550282E-03
               94                3   6.18602289E-03   14.2413341E-03               0.  -7.09717022E-03
               94                4   4.75838920E-03   14.6453232E-03               0.  -7.58399582E-03
               95                1   3.36761284E-03   6.66980399E-03               0.  -6.78896531E-03
               95                2  -476.137968E-06   5.37523115E-03               0.  -6.22371724E-03
               95                3   5.12588490E-03   6.63633505E-03               0.  -5.42983785E-03
               95                4   1.46637950E-03   5.31147979E-03               0.  -4.65690717E-03
               96                1   9.49457940E-03   33.9804851E-03               0.   14.3708969E-03
               96                2   12.5404671E-03   30.9488401E-03               0.   15.5097088E-03
               96                3   5.91223594E-03   28.2383393E-03               0.   12.0936641E-03
               96                4   8.75361823E-03   25.8857012E-03               0.   13.2038323E-03
               97                1   5.64991264E-03   31.5165818E-03               0.   7.65215233E-03
               97                2   4.79158433E-03   28.7972130E-03               0.   9.14956536E-03
               97                3   4.82161017E-03   28.7108812E-03               0.   7.13398773E-03
               97                4   4.03665798E-03   26.2072422E-03               0.   8.41313507E-03
               98                1   5.41977677E-03   27.8866217E-03               0.   6.74067810E-03
               98                2   3.46362335E-03   26.0490254E-03               0.   7.78214028E-03
               98                3   5.52632846E-03   26.9101001E-03               0.   6.89608650E-03
               98                4   3.86270951E-03   25.1813047E-03               0.   7.81472400E-03
               99                1   4.05872194E-03   22.2023856E-03               0.   8.99913069E-03
               99                2   5.10734553E-03   23.7207711E-03               0.   9.74521693E-03
               99                3   4.27752500E-03   20.3059148E-03               0.   9.42949578E-03
               99                4   5.21082571E-03   21.3289149E-03               0.   10.1358276E-03
              100                1   7.21974159E-03   16.3390171E-03               0.   11.2275975E-03
              100                2   9.27409623E-03   18.0787388E-03               0.   12.2384066E-03
              100                3   8.56679026E-03   14.8922158E-03               0.   10.9059531E-03
              100                4   10.8805252E-03   16.4448302E-03               0.   11.8898768E-03
              101                1   5.89078292E-03   5.55490889E-03               0.   4.94525814E-03
              101                2   4.20225551E-03   4.52858629E-03               0.   6.23896671E-03
              101                3   8.16225074E-03   6.09975122E-03               0.   5.12881624E-03
              101                4   6.65199012E-03   5.18153142E-03               0.   6.28378429E-03
              102                1   1.44847331E-03   466.970494E-06               0.   358.878839E-06
              102                2   61.1861760E-06   48.9348604E-06               0.   3.19272280E-03
              102                3   8.20124522E-03   2.49366253E-03               0.   635.213451E-06
              102                4   6.32690685E-03   1.92833808E-03               0.   3.25727952E-03
              103                1   9.03061777E-03   14.0682589E-03               0.   5.93081489E-03
              103                2   6.20844215E-03   8.26589204E-03               0.   7.72815384E-03
              103                3   10.6700677E-03   13.4084020E-03               0.   4.84536076E-03
              103                4   8.29673558E-03   8.21413938E-03               0.   6.35240925E-03
              104                1   10.4388408E-03   5.09431073E-03               0.   2.33388995E-03
              104                2   9.19256825E-03   3.31081427E-03               0.   3.49677494E-03
              104                3   12.7409147E-03   5.69146220E-03               0.   1.96635793E-03
              104                4   11.5949363E-03   4.00189683E-03               0.   3.06727760E-03
              105                1   13.0911097E-03   4.95385658E-03               0.   2.66451621E-03
              105                2   14.8393726E-03   5.53823449E-03               0.   1.71446777E-03
              105                3   14.3179689E-03   7.82567915E-03               0.   1.82367896E-03
              105                4   16.0111785E-03   8.54189601E-03               0.   893.893652E-06
              106                1   15.6293586E-03   5.57255186E-03               0.   1.22503948E-03
              106                2   16.3726304E-03   5.86942909E-03               0.   284.896174E-06
              106                3   16.4184235E-03   7.99396634E-03               0.   908.694114E-06
              106                4   17.1705727E-03   8.46343394E-03               0.   12.7369403E-06
              107                1   8.80032964E-03   8.26336443E-03               0.   6.17172616E-03
              107                2   11.8424706E-03   10.3032617E-03               0.   3.29829520E-03
              107                3   11.5555385E-03   15.3891388E-03               0.   4.64768056E-03
              107                4   14.5640410E-03   18.0440396E-03               0.   1.93881977E-03
              108                1   12.5781056E-03   8.67769774E-03               0.   2.51464173E-03
              108                2   14.4767230E-03   10.0950357E-03               0.   384.727551E-06
              108                3   14.1270813E-03   13.4617649E-03               0.   1.89403410E-03
              108                4   16.0409231E-03   15.1879825E-03               0.  -158.248848E-06
              109                1   12.5639169E-03   17.4719729E-03               0.   144.323640E-06
              109                2   14.3646728E-03   23.5420335E-03               0.  -123.661579E-06
              109                3   10.9343566E-03   15.2753824E-03               0.   2.70731840E-03
              109                4   12.5613920E-03   20.9404659E-03               0.   2.58434890E-03
              110                1   9.82007850E-03   26.8099625E-03               0.   514.361192E-06
              110                2   12.3717599E-03   35.4044065E-03               0.   325.148576E-06
              110                3   7.98790995E-03   23.5336535E-03               0.   3.90704442E-03
              110                4   10.4024122E-03   31.9429748E-03               0.   4.01724409E-03
              111                1   3.47774080E-03   39.8013368E-03               0.   1.84240786E-03
              111                2   7.60372449E-03   53.4502454E-03               0.   2.36585783E-03
              111                3   3.36856442E-03   36.2583846E-03               0.   6.71846373E-03
              111                4   7.96344969E-03   51.1359014E-03               0.   7.80167663E-03
              112                1   10.3428653E-03   19.7073091E-03               0.   3.48272058E-03
              112                2   12.0370369E-03   26.6967379E-03               0.   3.01935431E-03
              112                3   6.56941487E-03   16.1398742E-03               0.   6.70930045E-03
              112                4   7.69422203E-03   22.1905299E-03               0.   6.64581591E-03
              113                1   8.20049737E-03   29.3885097E-03               0.   4.37436718E-03
              113                2   10.0318510E-03   35.7627608E-03               0.   4.75841900E-03
              113                3   6.81685377E-03   26.1547919E-03               0.   7.04050157E-03
              113                4   8.46698601E-03   32.1077891E-03               0.   7.73531012E-03
              114                1   4.62637655E-03   37.1551663E-03               0.   8.86493176E-03
              114                2   8.72773584E-03   48.2138731E-03               0.   11.0284351E-03
              114                3   7.09849969E-03   33.3068743E-03               0.   12.5204967E-03
              114                4   11.5987621E-03   44.0737419E-03               0.   15.1998643E-03
              115                1   10.4646171E-03   35.0344852E-03               0.   15.5048417E-03
              115                2   14.5772779E-03   31.1629493E-03               0.   16.7763196E-03
              115                3   6.76437374E-03   28.9589763E-03               0.   13.1120253E-03
              115                4   10.4143666E-03   25.7049836E-03               0.   14.2656136E-03
              116                1   6.36250293E-03   31.6065326E-03               0.   9.29592550E-03
              116                2   6.79233624E-03   28.9214496E-03               0.   10.3621436E-03
              116                3   5.23037184E-03   28.9591085E-03               0.   8.61041900E-03
              116                4   5.43788774E-03   26.2918323E-03               0.   9.42318793E-03
              117                1   4.09331638E-03   25.7550366E-03               0.   9.19785909E-03
              117                2   3.42282304E-03   25.6562699E-03               0.   9.03842691E-03
              117                3   3.10716848E-03   25.2964813E-03               0.   9.58775170E-03
              117                4   2.40133819E-03   25.1486748E-03               0.   9.50766355E-03
              118                1   3.72314663E-03   23.5156640E-03               0.   9.17448848E-03
              118                2   3.67549504E-03   24.8096697E-03               0.   9.58306249E-03
              118                3   2.51672510E-03   21.0588649E-03               0.   10.0182733E-03
              118                4   2.29717302E-03   21.9589267E-03               0.   10.5340211E-03
              119                1   5.62529918E-03   16.7600010E-03               0.   10.3404559E-03
              119                2   7.35289697E-03   18.4322502E-03               0.   11.2557905E-03
              119                3   6.36638375E-03   15.3961647E-03               0.   10.1746693E-03
              119                4   8.30268022E-03   16.9425271E-03               0.   11.1129265E-03
              120                1   1.46090146E-03   5.39119262E-03               0.   4.68718866E-03
              120                2  -440.469332E-06   5.48654934E-03               0.   6.22954033E-03
              120                3   5.09923929E-03   6.72113989E-03               0.   5.47101116E-03
              120                4   3.39064747E-03   6.78658113E-03               0.   6.81020506E-03
              121                1  -4.13522543E-03   287.318864E-06               0.  -331.479241E-06
              121                2  -5.41666942E-03   857.202802E-06               0.   2.68324045E-03
              121                3   4.10637353E-03   2.90522445E-03               0.   477.906986E-06
              121                4   2.20299372E-03   3.17676063E-03               0.   3.10609443E-03
              122                1   4.79380088E-03   14.6991778E-03               0.   7.61852087E-03
              122                2   2.80236080E-03   11.3325920E-03               0.   8.93055834E-03
              122                3   6.18691975E-03   14.2805725E-03               0.   7.11219385E-03
              122                4   4.41899477E-03   11.2817399E-03               0.   8.27779155E-03
              123                1   6.76038116E-03   7.40229338E-03               0.   2.46318849E-03
              123                2   5.75510506E-03   6.46070531E-03               0.   3.41712078E-03
              123                3   8.78936797E-03   7.93463551E-03               0.   2.36593466E-03
              123                4   7.83270318E-03   7.06255902E-03               0.   3.24085052E-03
              124                1   7.93930981E-03   20.0655032E-03               0.   6.48978399E-03
              124                2   5.60901035E-03   15.3671699E-03               0.   7.97871035E-03
              124                3   9.26923193E-03   19.4697026E-03               0.   5.63802710E-03
              124                4   7.31631275E-03   15.2590983E-03               0.   6.88487384E-03
              125                1   10.1108672E-03   12.4823647E-03               0.   2.50816275E-03
              125                2   9.58981737E-03   11.1290636E-03               0.   2.79382779E-03
              125                3   10.3823598E-03   12.4715734E-03               0.   2.16471939E-03
              125                4   9.90436133E-03   11.1938976E-03               0.   2.41694693E-03
              126                1   10.5755301E-03   14.1342012E-03               0.   1.95025199E-03
              126                2   9.91260447E-03   13.9749981E-03               0.   1.33472169E-03
              126                3   10.9751653E-03   15.9974527E-03               0.   2.04449124E-03
              126                4   10.3894528E-03   15.9530453E-03               0.   1.48640724E-03
              127                1   9.48402286E-03   17.1545800E-03               0.   1.11233594E-03
              127                2   6.10764325E-03   16.1779970E-03               0.   688.587141E-06
              127                3   9.50366817E-03   18.3057524E-03               0.   2.20123050E-03
              127                4   6.40369765E-03   17.4917802E-03               0.   1.89268659E-03
              128                1   7.55664753E-03   16.6221242E-03               0.   6.80907397E-03
              128                2   8.83658230E-03   17.9484803E-03               0.   4.39528516E-03
              128                3   9.67977848E-03   22.9105577E-03               0.   5.86628169E-03
              128                4   11.0405395E-03   24.7909725E-03               0.   3.64848459E-03
              129                1   8.41183588E-03   19.2295387E-03               0.   4.64492152E-03
              129                2   6.57855719E-03   19.3544663E-03               0.   3.08341347E-03
              129                3   9.47568752E-03   23.2808162E-03               0.   5.12546208E-03
              129                4   7.83824921E-03   23.6983113E-03               0.   3.70322913E-03
              130                1   8.23524222E-03   26.9183684E-03               0.   4.34743380E-03
              130                2   10.1361703E-03   33.2291350E-03               0.   4.52495599E-03
              130                3   8.09434894E-03   25.2220966E-03               0.   6.86786277E-03
              130                4   9.95579455E-03   31.3499980E-03               0.   7.14735873E-03
              131                1   9.99714062E-03   38.1968804E-03               0.   4.59424034E-03
              131                2   12.7952695E-03   47.8608087E-03               0.   3.23037733E-03
              131                3   4.08254098E-03   33.8364355E-03               0.   9.13879089E-03
              131                4   6.77068811E-03   44.2203172E-03               0.   7.91934878E-03
              132                1   7.76695693E-03   26.2857433E-03               0.   6.32179389E-03
              132                2   10.2745080E-03   34.7083360E-03               0.   6.72085490E-03
              132                3   6.67149993E-03   23.1746137E-03               0.   9.74368211E-03
              132                4   8.85852892E-03   30.6085963E-03               0.   10.4958573E-03
              133                1   4.09173779E-03   36.5277641E-03               0.   10.9188966E-03
              133                2   7.75902206E-03   46.3880897E-03               0.   12.9972547E-03
              133                3   7.77570764E-03   33.1827179E-03               0.   14.4507075E-03
              133                4   11.8527785E-03   42.6924080E-03               0.   16.9104654E-03
              134                1   10.8788963E-03   16.4497141E-03               0.  -11.8844276E-03
              134                2   9.27121472E-03   18.0720575E-03               0.  -12.2346813E-03
              134                3   8.56815930E-03   14.9004404E-03               0.  -10.9029356E-03
              134                4   7.21806800E-03   16.3365602E-03               0.  -11.2254722E-03
              135                1   5.21606440E-03   21.3604327E-03               0.  -10.1240007E-03
              135                2   5.10009984E-03   23.7189475E-03               0.  -9.74102225E-03
              135                3   4.28214483E-03   20.3406736E-03               0.  -9.42270458E-03
              135                4   4.05111490E-03   22.2087242E-03               0.  -8.99824500E-03
              136                1   3.85433924E-03   25.1823999E-03               0.  -7.81292841E-03
              136                2   3.45982984E-03   26.0769259E-03               0.  -7.78532261E-03
              136                3   5.52346930E-03   26.9276742E-03               0.  -6.88708760E-03
              136                4   5.42417681E-03   27.9262532E-03               0.  -6.73454301E-03
              137                1   4.03711759E-03   26.2360815E-03               0.  -8.43069423E-03
              137                2   4.77859052E-03   28.7787076E-03               0.  -9.15535633E-03
              137                3   4.81707230E-03   28.7246723E-03               0.  -7.14477710E-03
              137                4   5.64428326E-03   31.5256603E-03               0.  -7.66162807E-03
              138                1   8.69192183E-03   25.8111991E-03               0.  -13.1340707E-03
              138                2   12.5509119E-03   30.9595652E-03               0.  -15.4819209E-03
              138                3   5.86032122E-03   28.2267891E-03               0.  -12.0456861E-03
              138                4   9.49109439E-03   34.0179019E-03               0.  -14.3516054E-03
              139                1   11.5869185E-03   44.0378897E-03               0.  -15.1762599E-03
              139                2   8.74351431E-03   48.1385216E-03               0.  -11.0250618E-03
              139                3   7.06867874E-03   33.2633257E-03               0.  -12.4768922E-03
              139                4   4.60756896E-03   37.0382704E-03               0.  -8.83317646E-03
              140                1   8.01446941E-03   51.1315763E-03               0.  -7.82879256E-03
              140                2   7.61066703E-03   53.4268506E-03               0.  -2.36846437E-03
              140                3   3.40809254E-03   36.2472348E-03               0.  -6.70632115E-03
              140                4   3.46494978E-03   39.7201441E-03               0.  -1.82530610E-03
              141                1   8.43368750E-03   32.0473313E-03               0.  -7.70952646E-03
              141                2   10.0149894E-03   35.6813930E-03               0.  -4.73127048E-03
              141                3   6.81819255E-03   26.2015890E-03               0.  -7.04259565E-03
              141                4   8.22782796E-03   29.4553563E-03               0.  -4.37764265E-03
              142                1   10.3906896E-03   31.9347195E-03               0.  -4.01931489E-03
              142                2   12.3643493E-03   35.3783108E-03               0.  -319.193379E-06
              142                3   7.97042251E-03   23.5182457E-03               0.  -3.92869441E-03
              142                4   9.83391982E-03   26.8591866E-03               0.  -514.360901E-06
              143                1   7.69258011E-03   22.2677905E-03               0.  -6.64847484E-03
              143                2   12.0333768E-03   26.7972704E-03               0.  -3.02070472E-03
              143                3   6.56220643E-03   16.2014011E-03               0.  -6.71057217E-03
              143                4   10.3284726E-03   19.7663289E-03               0.  -3.48378834E-03
              144                1   12.5382552E-03   20.9417753E-03               0.  -2.58000637E-03
              144                2   14.3728890E-03   23.5925633E-03               0.   126.068175E-06
              144                3   10.9145502E-03   15.2832698E-03               0.  -2.70829629E-03
              144                4   12.5722690E-03   17.5215714E-03               0.  -147.983548E-06
              145                1   16.0494708E-03   15.2323460E-03               0.   161.954158E-06
              145                2   14.4778211E-03   10.1142703E-03               0.  -385.242834E-06
              145                3   14.1192460E-03   13.4757087E-03               0.  -1.89537730E-03
              145                4   12.5673674E-03   8.67916271E-03               0.  -2.51739006E-03
              146                1   17.1731226E-03   8.47566593E-03               0.  -10.6723910E-06
              146                2   16.3723882E-03   5.87235112E-03               0.  -283.934583E-06
              146                3   16.4176002E-03   8.00139457E-03               0.  -908.883114E-06
              146                4   15.6267639E-03   5.57364989E-03               0.  -1.22579723E-03
              147                1   14.5584680E-03   18.0819444E-03               0.  -1.94191304E-03
              147                2   11.8342219E-03   10.3188548E-03               0.  -3.29846400E-03
              147                3   11.5584927E-03   15.4363029E-03               0.  -4.64932155E-03
              147                4   8.79885349E-03   8.28559883E-03               0.  -6.17270079E-03
              148                1   16.0074439E-03   8.54227785E-03               0.  -896.030513E-06
              148                2   14.8369968E-03   5.53818373E-03               0.  -1.71542144E-03
              148                3   14.3178497E-03   7.82850105E-03               0.  -1.82460248E-03
              148                4   13.0916573E-03   4.95507428E-03               0.  -2.66479421E-03
              149                1   11.5967691E-03   4.00397088E-03               0.  -3.06765898E-03
              149                2   9.19572543E-03   3.31351138E-03               0.  -3.49810021E-03
              149                3   12.7424188E-03   5.69715258E-03               0.  -1.96673558E-03
              149                4   10.4423799E-03   5.10135619E-03               0.  -2.33482453E-03
              150                1   6.33022189E-03   1.92883983E-03               0.  -3.25935776E-03
              150                2   66.2518141E-06   49.9214002E-06               0.  -3.19400313E-03
              150                3   8.20131321E-03   2.49160663E-03               0.  -638.571859E-06
              150                4   1.45235180E-03   465.888443E-06               0.  -360.525533E-06
              151                1   8.29144008E-03   8.22790898E-03               0.  -6.35638973E-03
              151                2   6.21701637E-03   8.28758348E-03               0.  -7.72956526E-03
              151                3   10.6538227E-03   13.4121655E-03               0.  -4.85776085E-03
              151                4   9.02982149E-03   14.0828164E-03               0.  -5.93927130E-03
              152                1   6.65664952E-03   5.19176433E-03               0.  -6.28779549E-03
              152                2   4.20968933E-03   4.53886203E-03               0.  -6.24046475E-03
              152                3   8.16152152E-03   6.10182341E-03               0.  -5.13573457E-03
              152                4   5.89331612E-03   5.55648562E-03               0.  -4.94972011E-03


********************************************************************************
Field Output Report, written Tue Jun 03 12:18:19 2025

Source 1
---------

   ODB: C:/lnms/Vid/VF/LinearnaPolja/PoljeU2/PoljeU2.odb
   Step: loading
   Frame: Increment      9: Step Time =   0.9000

Loc 1 : Integration point values from source 1

Output sorted by column "Element Label".

Field Output reported at integration points for part: SPECIMEN-1

          Element              Int            S.S11            S.S22            S.S33            S.S12
            Label               Pt           @Loc 1           @Loc 1           @Loc 1           @Loc 1
-------------------------------------------------------------------------------------------------------
                1                1   12.2129703E-03   18.5733549E-03               0.  -13.3606549E-03
                1                2   10.3817135E-03   20.3916598E-03               0.  -13.7505326E-03
                1                3   9.60558094E-03   16.8184284E-03               0.  -12.2507680E-03
                1                4   8.06672405E-03   18.4289198E-03               0.  -12.6102632E-03
                2                1   5.84949460E-03   24.0292307E-03               0.  -11.3437297E-03
                2                2   5.71465818E-03   26.6437288E-03               0.  -10.9139364E-03
                2                3   4.81014932E-03   22.8897482E-03               0.  -10.5638541E-03
                2                4   4.54800809E-03   24.9597561E-03               0.  -10.0885732E-03
                3                1   4.33231099E-03   28.2784514E-03               0.  -8.76084529E-03
                3                2   3.90506210E-03   29.2922538E-03               0.  -8.73384811E-03
                3                3   6.18938357E-03   30.2319061E-03               0.  -7.72642158E-03
                3                4   6.08882401E-03   31.3598998E-03               0.  -7.55931763E-03
                4                1   4.55392199E-03   29.4896327E-03               0.  -9.45891812E-03
                4                2   5.39613189E-03   32.3401988E-03               0.  -10.2704791E-03
                4                3   5.40055614E-03   32.2517827E-03               0.  -8.02499894E-03
                4                4   6.33459957E-03   35.3869013E-03               0.  -8.60501360E-03
                5                1   9.72203817E-03   29.0840194E-03               0.  -14.7401774E-03
                5                2   14.0415356E-03   34.8739512E-03               0.  -17.3712689E-03
                5                3   6.53021690E-03   31.7721590E-03               0.  -13.5069024E-03
                5                4   10.5937971E-03   38.2778943E-03               0.  -16.0900950E-03
                6                1   12.9050175E-03   49.4780093E-03               0.  -16.9894286E-03
                6                2   9.73045826E-03   54.0236272E-03               0.  -12.3460079E-03
                6                3   7.87012931E-03   37.4337807E-03               0.  -13.9885321E-03
                6                4   5.11870719E-03   41.6248590E-03               0.  -9.90719907E-03
                7                1   8.90382938E-03   57.3506169E-03               0.  -8.74695368E-03
                7                2   8.46028887E-03   59.9015243E-03               0.  -2.65868381E-03
                7                3   3.76642100E-03   40.7400206E-03               0.  -7.50592491E-03
                7                4   3.83568555E-03   44.6106419E-03               0.  -2.05440703E-03
                8                1   9.44642816E-03   36.0195152E-03               0.  -8.68126005E-03
                8                2   11.1838020E-03   40.0674045E-03               0.  -5.34464000E-03
                8                3   7.62367854E-03   29.4541027E-03               0.  -7.93065503E-03
                8                4   9.17267893E-03   33.0814533E-03               0.  -4.94321994E-03
                9                1   11.5809292E-03   35.8985551E-03               0.  -4.52386541E-03
                9                2   13.7842149E-03   39.7497490E-03               0.  -376.267126E-06
                9                3   8.86422768E-03   26.4555756E-03               0.  -4.42367420E-03
                9                4   10.9460894E-03   30.1965121E-03               0.  -592.919823E-06
               10                1   8.61452147E-03   25.0465982E-03               0.  -7.48310378E-03
               10                2   13.4530971E-03   30.1001370E-03               0.  -3.41993687E-03
               10                3   7.33556738E-03   18.2354022E-03               0.  -7.55204633E-03
               10                4   11.5336059E-03   22.2140364E-03               0.  -3.93533288E-03
               11                1   14.0025523E-03   23.5606525E-03               0.  -2.91238981E-03
               11                2   16.0544980E-03   26.5322812E-03               0.   127.518273E-06
               11                3   12.1759521E-03   17.1988737E-03               0.  -3.05628963E-03
               11                4   14.0303886E-03   19.7093692E-03               0.  -178.211121E-06
               12                1   17.9491062E-03   17.1372611E-03               0.   172.311105E-06
               12                2   16.1805488E-03   11.3781318E-03               0.  -439.921132E-06
               12                3   15.7891829E-03   15.1668191E-03               0.  -2.14135298E-03
               12                4   14.0426336E-03   9.76858567E-03               0.  -2.83932709E-03
               13                1   19.2268547E-03   9.53138340E-03               0.  -17.6127214E-06
               13                2   18.3205567E-03   6.58405945E-03               0.  -323.148910E-06
               13                3   18.3822643E-03   8.99816956E-03               0.  -1.03398773E-03
               13                4   17.4877401E-03   6.24970300E-03               0.  -1.38953794E-03
               14                1   16.2851047E-03   20.3217342E-03               0.  -2.20434112E-03
               14                2   13.2274991E-03   11.6096968E-03               0.  -3.72439716E-03
               14                3   12.9330177E-03   17.3659194E-03               0.  -5.24090696E-03
               14                4   9.83479526E-03   9.34023224E-03               0.  -6.95100008E-03
               15                1   17.9259554E-03   9.60509945E-03               0.  -1.02913065E-03
               15                2   16.6067276E-03   6.21174090E-03               0.  -1.94619235E-03
               15                3   16.0397235E-03   8.80680420E-03               0.  -2.07724748E-03
               15                4   14.6584800E-03   5.56124328E-03               0.  -3.01873777E-03
               16                1   12.9884388E-03   4.49561840E-03               0.  -3.47619900E-03
               16                2   10.3078987E-03   3.72625864E-03               0.  -3.96487350E-03
               16                3   14.2779825E-03   6.41456293E-03               0.  -2.24444247E-03
               16                4   11.7112771E-03   5.75254066E-03               0.  -2.66285031E-03
               17                1   7.09873438E-03   2.16885610E-03               0.  -3.69813642E-03
               17                2   68.5015402E-06   60.1899847E-06               0.  -3.62388301E-03
               17                3   9.20729619E-03   2.80512217E-03               0.  -758.573820E-06
               17                4   1.63507299E-03   532.318722E-06               0.  -443.290191E-06
               18                1   9.27256048E-03   9.27594863E-03               0.  -7.15963123E-03
               18                2   6.94910996E-03   9.35268868E-03               0.  -8.69883969E-03
               18                3   11.9267199E-03   15.0911231E-03               0.  -5.47610223E-03
               18                4   10.1100700E-03   15.8521850E-03               0.  -6.68689096E-03
               19                1   7.47476844E-03   5.87706454E-03               0.  -7.08765490E-03
               19                2   4.76635201E-03   5.15810214E-03               0.  -7.03690015E-03
               19                3   9.15549323E-03   6.90261507E-03               0.  -5.80995390E-03
               19                4   6.64733909E-03   6.30498724E-03               0.  -5.60512207E-03
               20                1   9.39286780E-03   19.0794356E-03               0.  -12.4946646E-03
               20                2   8.28704517E-03   20.8575521E-03               0.  -12.6507413E-03
               20                3   7.13032112E-03   17.2552802E-03               0.  -11.3901282E-03
               20                4   6.28380664E-03   18.8951194E-03               0.  -11.5826512E-03
               21                1   2.62596039E-03   24.7032531E-03               0.  -11.8169142E-03
               21                2   4.16108919E-03   27.8995167E-03               0.  -10.7579967E-03
               21                3   2.86153005E-03   23.6816723E-03               0.  -11.2376669E-03
               21                4   4.20623831E-03   26.4163967E-03               0.  -10.2907047E-03
               22                1   2.69743381E-03   28.2967519E-03               0.  -10.6282961E-03
               22                2   3.85026331E-03   28.7950858E-03               0.  -10.1200426E-03
               22                3   3.50722950E-03   28.4905974E-03               0.  -10.7387220E-03
               22                4   4.61933529E-03   28.9479792E-03               0.  -10.3190280E-03
               23                1   6.12348272E-03   29.5584146E-03               0.  -10.5862999E-03
               23                2   7.64169404E-03   32.5104967E-03               0.  -11.6366670E-03
               23                3   5.87546499E-03   32.5338468E-03               0.  -9.66672413E-03
               23                4   7.14415498E-03   35.5082117E-03               0.  -10.4329120E-03
               24                1   11.6476994E-03   28.9763510E-03               0.  -16.0190929E-03
               24                2   16.2787996E-03   35.0813605E-03               0.  -18.8167971E-03
               24                3   7.55575579E-03   32.5864293E-03               0.  -14.7106787E-03
               24                4   11.6728377E-03   39.3807478E-03               0.  -17.3766147E-03
               25                1   13.1970169E-03   47.9637310E-03               0.  -18.9343672E-03
               25                2   8.63387994E-03   52.0710200E-03               0.  -14.5593854E-03
               25                3   8.65978468E-03   37.3398103E-03               0.  -16.2025522E-03
               25                4   4.54956433E-03   41.0648957E-03               0.  -12.2484444E-03
               26                1   7.55465217E-03   49.6650636E-03               0.  -8.81283451E-03
               26                2   14.3616945E-03   53.7544787E-03               0.  -3.56327044E-03
               26                3   4.54282854E-03   38.0299389E-03               0.  -10.2039743E-03
               26                4   11.2303300E-03   42.9363400E-03               0.  -5.10599604E-03
               27                1   9.90437716E-03   34.4454981E-03               0.  -11.7852138E-03
               27                2   11.5022417E-03   39.0421115E-03               0.  -7.54709961E-03
               27                3   7.44589837E-03   26.0823015E-03               0.  -10.9548829E-03
               27                4   8.68676882E-03   29.5839626E-03               0.  -7.10785575E-03
               28                1   11.1333104E-03   35.2466479E-03               0.  -7.97907915E-03
               28                2   11.3853235E-03   37.3705886E-03               0.  -5.03718713E-03
               28                3   9.04844142E-03   28.3735078E-03               0.  -7.68106058E-03
               28                4   9.25473310E-03   30.2949175E-03               0.  -4.85116988E-03
               29                1   8.81362800E-03   26.6837832E-03               0.  -4.13526408E-03
               29                2   7.39775738E-03   21.8046680E-03               0.  -3.44866351E-03
               29                3   10.6190201E-03   26.2024868E-03               0.  -5.73166879E-03
               29                4   9.42204706E-03   21.6502249E-03               0.  -5.20230737E-03
               30                1   7.20635056E-03   19.7131094E-03               0.  -2.11646198E-03
               30                2   6.87081693E-03   18.2357188E-03               0.  -770.445273E-06
               30                3   10.6665678E-03   20.6199717E-03               0.  -2.46248720E-03
               30                4   10.6367320E-03   19.3245281E-03               0.  -1.24593312E-03
               31                1   12.3747122E-03   27.9183313E-03               0.  -4.10011830E-03
               31                2   9.90165677E-03   20.2388708E-03               0.  -4.93775727E-03
               31                3   10.8594093E-03   25.8105081E-03               0.  -6.58111321E-03
               31                4   8.47524125E-03   18.7482145E-03               0.  -7.64201256E-03
               32                1   11.6534093E-03   18.0032700E-03               0.  -1.66877639E-03
               32                2   11.1126760E-03   15.7672651E-03               0.  -1.49459613E-03
               32                3   12.3146642E-03   18.0516429E-03               0.  -2.29748804E-03
               32                4   11.8600028E-03   15.9466434E-03               0.  -2.18694168E-03
               33                1   11.1115184E-03   12.6434797E-03               0.  -2.70779757E-03
               33                2   10.7843643E-03   12.5792604E-03               0.  -3.13545158E-03
               33                3   11.6434284E-03   14.0928496E-03               0.  -2.43558059E-03
               33                4   11.3627343E-03   14.1136907E-03               0.  -2.82641477E-03
               34                1   8.79855920E-03   7.97126256E-03               0.  -3.64294369E-03
               34                2   6.47123018E-03   7.29754427E-03               0.  -3.83006735E-03
               34                3   9.83678084E-03   8.90481845E-03               0.  -2.68118014E-03
               34                4   7.58601073E-03   8.31482559E-03               0.  -2.77553475E-03
               35                1   2.47907219E-03   3.58550483E-03               0.  -3.48087517E-03
               35                2  -6.06928719E-03   984.216109E-06               0.  -3.01252678E-03
               35                3   4.67120437E-03   3.30548314E-03               0.  -527.378055E-06
               35                4  -4.60686954E-03   363.640604E-06               0.   367.960718E-06
               36                1   8.21666606E-03   17.2304418E-03               0.  -7.73522630E-03
               36                2   6.32543303E-03   17.3581876E-03               0.  -8.95296037E-03
               36                3   10.4028285E-03   21.9430551E-03               0.  -6.34078030E-03
               36                4   8.92720465E-03   22.6169359E-03               0.  -7.29145668E-03
               37                1   4.98247333E-03   12.7879577E-03               0.  -9.26966965E-03
               37                2   3.12002655E-03   12.8438398E-03               0.  -9.97935422E-03
               37                3   6.93854922E-03   16.0500314E-03               0.  -7.97542650E-03
               37                4   5.33709489E-03   16.5057778E-03               0.  -8.51727184E-03
               38                1   3.79457045E-03   7.54976040E-03               0.  -7.64475903E-03
               38                2  -481.988798E-06   6.10739598E-03               0.  -7.01102987E-03
               38                3   5.76498965E-03   7.51586352E-03               0.  -6.13528350E-03
               38                4   1.69653667E-03   6.04007626E-03               0.  -5.27018821E-03
               39                1   11.6770519E-03   39.3791683E-03               0.   17.3794124E-03
               39                2   16.2855741E-03   35.0783542E-03               0.   18.8177824E-03
               39                3   7.55192246E-03   32.5804241E-03               0.   14.7091281E-03
               39                4   11.6448179E-03   28.9636459E-03               0.   16.0147026E-03
               40                1   7.13293813E-03   35.4930609E-03               0.   10.4393587E-03
               40                2   7.64005259E-03   32.5040966E-03               0.   11.6327712E-03
               40                3   5.86083811E-03   32.5238705E-03               0.   9.66922380E-03
               40                4   6.11481490E-03   29.5505356E-03               0.   10.5788140E-03
               41                1   4.61171847E-03   28.9454050E-03               0.   10.3171030E-03
               41                2   3.84899718E-03   28.8204364E-03               0.   10.1297041E-03
               41                3   3.49727203E-03   28.4468420E-03               0.   10.7509000E-03
               41                4   2.69526942E-03   28.2712616E-03               0.   10.6533403E-03
               42                1   4.18327050E-03   26.4375377E-03               0.   10.2795959E-03
               42                2   4.12458880E-03   27.8795976E-03               0.   10.7290279E-03
               42                3   2.83142133E-03   23.7069651E-03               0.   11.2244673E-03
               42                4   2.58018263E-03   24.7115195E-03               0.   11.7942626E-03
               43                1   6.29413873E-03   18.9173333E-03               0.   11.6192764E-03
               43                2   8.24904162E-03   20.8130088E-03               0.   12.6558281E-03
               43                3   7.14689586E-03   17.3854511E-03               0.   11.4336656E-03
               43                4   9.33984295E-03   19.1412196E-03               0.   12.4966111E-03
               44                1   1.69001403E-03   6.12962106E-03               0.   5.30379079E-03
               44                2  -442.345307E-06   6.23236876E-03               0.   7.01734005E-03
               44                3   5.73481200E-03   7.61117460E-03               0.   6.18098397E-03
               44                4   3.81998438E-03   7.68087059E-03               0.   7.66824000E-03
               45                1  -4.58488055E-03   346.961198E-06               0.  -353.953685E-06
               45                2  -6.02739863E-03   990.155735E-06               0.   3.02069471E-03
               45                3   4.63921251E-03   3.27964989E-03               0.   559.289881E-06
               45                4   2.50284746E-03   3.58780986E-03               0.   3.49811185E-03
               46                1   5.37661649E-03   16.5663343E-03               0.   8.55579600E-03
               46                2   3.13759525E-03   12.7969822E-03               0.   10.0299520E-03
               46                3   6.93965051E-03   16.0941724E-03               0.   7.99207948E-03
               46                4   4.95254807E-03   12.7365058E-03               0.   9.30137467E-03
               47                1   7.60587770E-03   8.36631469E-03               0.   2.78096716E-03
               47                2   6.48404099E-03   7.31146941E-03               0.   3.84235778E-03
               47                3   9.86064505E-03   8.95662513E-03               0.   2.67132232E-03
               47                4   8.79352167E-03   7.97988288E-03               0.   3.64462612E-03
               48                1   8.89615342E-03   22.5680266E-03               0.   7.29194796E-03
               48                2   6.28885115E-03   17.3241217E-03               0.   8.95830523E-03
               48                3   10.3818206E-03   21.8989886E-03               0.   6.34337682E-03
               48                4   8.19739327E-03   17.1989556E-03               0.   7.73856184E-03
               49                1   11.3433767E-03   14.0803335E-03               0.   2.82105897E-03
               49                2   10.7632345E-03   12.5655718E-03               0.   3.13727045E-03
               49                3   11.6384728E-03   14.0651036E-03               0.   2.43610051E-03
               49                4   11.1059528E-03   12.6348287E-03               0.   2.71499832E-03
               50                1   11.8603110E-03   15.9432795E-03               0.   2.18823901E-03
               50                2   11.1171212E-03   15.7643817E-03               0.   1.49817672E-03
               50                3   12.3080285E-03   18.0315003E-03               0.   2.29362212E-03
               50                4   11.6514387E-03   17.9814044E-03               0.   1.66811410E-03
               51                1   10.6415087E-03   19.3261951E-03               0.   1.24612497E-03
               51                2   6.87167933E-03   18.2360392E-03               0.   770.183862E-06
               51                3   10.6658880E-03   20.6188355E-03               0.   2.46141688E-03
               51                4   7.20512960E-03   19.7110102E-03               0.   2.11482635E-03
               52                1   8.46988987E-03   18.7374000E-03               0.   7.64482608E-03
               52                2   9.89814755E-03   20.2179197E-03               0.   4.93696565E-03
               52                3   10.8503839E-03   25.7888567E-03               0.   6.58683805E-03
               52                4   12.3688243E-03   27.8904065E-03               0.   4.10074648E-03
               53                1   9.42882337E-03   21.6516834E-03               0.   5.20101888E-03
               53                2   7.39860022E-03   21.8008161E-03               0.   3.44654475E-03
               53                3   10.6252478E-03   26.1996016E-03               0.   5.73192071E-03
               53                4   8.81374162E-03   26.6767852E-03               0.   4.13427642E-03
               54                1   9.25328583E-03   30.2872919E-03               0.   4.85091144E-03
               54                2   11.3840913E-03   37.3633951E-03               0.   5.03792334E-03
               54                3   9.05040093E-03   28.3700377E-03               0.   7.68208411E-03
               54                4   11.1351665E-03   35.2419466E-03               0.   7.98183307E-03
               55                1   11.2288734E-03   42.9300554E-03               0.   5.10653574E-03
               55                2   14.3599724E-03   53.7491217E-03               0.   3.56500200E-03
               55                3   4.54561925E-03   38.0281731E-03               0.   10.2034779E-03
               55                4   7.55425682E-03   49.6603251E-03               0.   8.81579053E-03
               56                1   8.68158042E-03   29.5659527E-03               0.   7.10274791E-03
               56                2   11.4953266E-03   39.0155427E-03               0.   7.54809985E-03
               56                3   7.45519204E-03   26.0863733E-03               0.   10.9450035E-03
               56                4   9.90999769E-03   34.4324298E-03               0.   11.7836324E-03
               57                1   4.54712659E-03   41.0522670E-03               0.   12.2435391E-03
               57                2   8.63573793E-03   52.0590022E-03               0.   14.5586543E-03
               57                3   8.66045058E-03   37.3347476E-03               0.   16.1958020E-03
               57                4   13.2021233E-03   47.9558297E-03               0.   18.9319700E-03
               58                1   10.5973352E-03   38.2365361E-03               0.   16.1115900E-03
               58                2   14.0297823E-03   34.8624811E-03               0.   17.4022131E-03
               58                3   6.58773864E-03   31.7855626E-03               0.   13.5604208E-03
               58                4   9.79072601E-03   29.1681383E-03               0.   14.8180341E-03
               59                1   6.34088181E-03   35.3771597E-03               0.   8.59471504E-03
               59                2   5.41110570E-03   32.3610902E-03               0.   10.2643995E-03
               59                3   5.40529517E-03   32.2363302E-03               0.   8.01303610E-03
               59                4   4.55327658E-03   29.4570532E-03               0.   9.43944138E-03
               60                1   6.08391454E-03   31.3156620E-03               0.   7.56614516E-03
               60                2   3.90909193E-03   29.2608570E-03               0.   8.73020384E-03
               60                3   6.19261060E-03   30.2123632E-03               0.   7.73644447E-03
               60                4   4.34158044E-03   28.2771681E-03               0.   8.76277965E-03
               61                1   4.55648033E-03   24.9525812E-03               0.   10.0895502E-03
               61                2   5.72275743E-03   26.6457647E-03               0.   10.9186126E-03
               61                3   4.80496092E-03   22.8508469E-03               0.   10.5714919E-03
               61                4   5.84363658E-03   23.9940509E-03               0.   11.3570020E-03
               62                1   8.06860439E-03   18.4316821E-03               0.   12.6126548E-03
               62                2   10.3849014E-03   20.3991290E-03               0.   13.7546845E-03
               62                3   9.60404240E-03   16.8092698E-03               0.   12.2541711E-03
               62                4   12.2147650E-03   18.5679384E-03               0.   13.3667598E-03
               63                1   6.64454838E-03   6.30319351E-03               0.   5.60013624E-03
               63                2   4.75807255E-03   5.14657237E-03               0.   7.03523261E-03
               63                3   9.15633515E-03   6.90025184E-03               0.   5.80223184E-03
               63                4   7.46958889E-03   5.86557062E-03               0.   7.08318455E-03
               64                1   1.63071777E-03   533.500977E-06               0.   441.443612E-06
               64                2   62.8194830E-06   59.0738091E-06               0.   3.62245226E-03
               64                3   9.20723099E-03   2.80740205E-03               0.   754.815585E-06
               64                4   7.09502865E-03   2.16828729E-03               0.   3.69581627E-03
               65                1   10.1110013E-03   15.8358086E-03               0.   6.67745620E-03
               65                2   6.93951687E-03   9.32834763E-03               0.   8.69729742E-03
               65                3   11.9449627E-03   15.0868390E-03               0.   5.46225812E-03
               65                4   9.27851908E-03   9.26048867E-03               0.   7.15521956E-03
               66                1   11.7073199E-03   5.74462535E-03               0.   2.66180909E-03
               66                2   10.3043765E-03   3.72323068E-03               0.   3.96339921E-03
               66                3   14.2763127E-03   6.40817778E-03               0.   2.24402524E-03
               66                4   12.9864058E-03   4.49329522E-03               0.   3.47578246E-03
               67                1   14.6578904E-03   5.55987144E-03               0.   3.01843742E-03
               67                2   16.6094210E-03   6.21179538E-03               0.   1.94513414E-03
               67                3   16.0398725E-03   8.80360231E-03               0.   2.07621511E-03
               67                4   17.9301612E-03   9.60464403E-03               0.   1.02673646E-03
               68                1   17.4906757E-03   6.24847924E-03               0.   1.38869544E-03
               68                2   18.3208305E-03   6.58077421E-03               0.   324.228517E-06
               68                3   18.3832049E-03   8.98983795E-03               0.   1.03378424E-03
               68                4   19.2239862E-03   9.51762311E-03               0.   19.9323695E-06
               69                1   9.83647164E-03   9.31523833E-03               0.   6.94994861E-03
               69                2   13.2368049E-03   11.5921851E-03               0.   3.72423208E-03
               69                3   12.9297273E-03   17.3129942E-03               0.   5.23910159E-03
               69                4   16.2914023E-03   20.2792287E-03               0.   2.20088335E-03
               70                1   14.0547473E-03   9.76694748E-03               0.   2.83624954E-03
               70                2   16.1793064E-03   11.3564888E-03               0.   439.334108E-06
               70                3   15.7980192E-03   15.1511580E-03               0.   2.13986170E-03
               70                4   17.9394893E-03   17.0873906E-03               0.  -168.155544E-06
               71                1   14.0210195E-03   19.6536202E-03               0.   174.096902E-06
               71                2   16.0452798E-03   26.4755022E-03               0.  -124.799888E-06
               71                3   12.1983094E-03   17.1900522E-03               0.   3.05519998E-03
               71                4   14.0286395E-03   23.5592071E-03               0.   2.91729043E-03
               72                1   10.9305121E-03   30.1412344E-03               0.   592.880300E-06
               72                2   13.7925064E-03   39.7790037E-03               0.   382.864149E-06
               72                3   8.88360199E-03   26.4727119E-03               0.   4.39939182E-03
               72                4   11.5938587E-03   35.9077491E-03               0.   4.52150172E-03
               73                1   3.85003327E-03   44.7015502E-03               0.   2.07345211E-03
               73                2   8.45250580E-03   59.9275306E-03               0.   2.65574385E-03
               73                3   3.72237060E-03   40.7527871E-03               0.   7.51929637E-03
               73                4   8.84695072E-03   57.3553406E-03               0.   8.71653855E-03
               74                1   11.5497978E-03   22.1478492E-03               0.   3.93412821E-03
               74                2   13.4571753E-03   29.9873184E-03               0.   3.41835665E-03
               74                3   7.34357676E-03   18.1663800E-03               0.   7.55059160E-03
               74                4   8.61622673E-03   24.9598473E-03               0.   7.48005370E-03
               75                1   9.14202351E-03   33.0065154E-03               0.   4.93930746E-03
               75                2   11.2029267E-03   40.1588008E-03               0.   5.37482323E-03
               75                3   7.62182521E-03   29.4015650E-03               0.   7.92815164E-03
               75                4   9.48353298E-03   36.0874124E-03               0.   8.70994199E-03
               76                1   5.13938954E-03   41.7561382E-03               0.   9.94259119E-03
               76                2   9.71227884E-03   54.1077182E-03               0.   12.3495990E-03
               76                3   7.90289417E-03   37.4834090E-03               0.   14.0371146E-03
               76                4   12.9174311E-03   49.5183133E-03               0.   17.0154776E-03
               77                1   9.39286780E-03   19.0794356E-03               0.  -12.4946646E-03
               77                2   8.28704517E-03   20.8575521E-03               0.  -12.6507413E-03
               77                3   7.13032112E-03   17.2552802E-03               0.  -11.3901282E-03
               77                4   6.28380664E-03   18.8951194E-03               0.  -11.5826512E-03
               78                1   2.62596039E-03   24.7032531E-03               0.  -11.8169142E-03
               78                2   4.16108919E-03   27.8995167E-03               0.  -10.7579967E-03
               78                3   2.86153005E-03   23.6816723E-03               0.  -11.2376669E-03
               78                4   4.20623831E-03   26.4163967E-03               0.  -10.2907047E-03
               79                1   2.69743381E-03   28.2967519E-03               0.  -10.6282961E-03
               79                2   3.85026331E-03   28.7950858E-03               0.  -10.1200426E-03
               79                3   3.50722950E-03   28.4905974E-03               0.  -10.7387220E-03
               79                4   4.61933529E-03   28.9479792E-03               0.  -10.3190280E-03
               80                1   6.12348272E-03   29.5584146E-03               0.  -10.5862999E-03
               80                2   7.64169404E-03   32.5104967E-03               0.  -11.6366670E-03
               80                3   5.87546499E-03   32.5338468E-03               0.  -9.66672413E-03
               80                4   7.14415498E-03   35.5082117E-03               0.  -10.4329120E-03
               81                1   11.6476994E-03   28.9763510E-03               0.  -16.0190929E-03
               81                2   16.2787996E-03   35.0813605E-03               0.  -18.8167971E-03
               81                3   7.55575579E-03   32.5864293E-03               0.  -14.7106787E-03
               81                4   11.6728377E-03   39.3807478E-03               0.  -17.3766147E-03
               82                1   13.1970169E-03   47.9637310E-03               0.  -18.9343672E-03
               82                2   8.63387994E-03   52.0710200E-03               0.  -14.5593854E-03
               82                3   8.65978468E-03   37.3398103E-03               0.  -16.2025522E-03
               82                4   4.54956433E-03   41.0648957E-03               0.  -12.2484444E-03
               83                1   7.55465217E-03   49.6650636E-03               0.  -8.81283451E-03
               83                2   14.3616945E-03   53.7544787E-03               0.  -3.56327044E-03
               83                3   4.54282854E-03   38.0299389E-03               0.  -10.2039743E-03
               83                4   11.2303300E-03   42.9363400E-03               0.  -5.10599604E-03
               84                1   9.90437716E-03   34.4454981E-03               0.  -11.7852138E-03
               84                2   11.5022417E-03   39.0421115E-03               0.  -7.54709961E-03
               84                3   7.44589837E-03   26.0823015E-03               0.  -10.9548829E-03
               84                4   8.68676882E-03   29.5839626E-03               0.  -7.10785575E-03
               85                1   11.1333104E-03   35.2466479E-03               0.  -7.97907915E-03
               85                2   11.3853235E-03   37.3705886E-03               0.  -5.03718713E-03
               85                3   9.04844142E-03   28.3735078E-03               0.  -7.68106058E-03
               85                4   9.25473310E-03   30.2949175E-03               0.  -4.85116988E-03
               86                1   8.81362800E-03   26.6837832E-03               0.  -4.13526408E-03
               86                2   7.39775738E-03   21.8046680E-03               0.  -3.44866351E-03
               86                3   10.6190201E-03   26.2024868E-03               0.  -5.73166879E-03
               86                4   9.42204706E-03   21.6502249E-03               0.  -5.20230737E-03
               87                1   7.20635056E-03   19.7131094E-03               0.  -2.11646198E-03
               87                2   6.87081693E-03   18.2357188E-03               0.  -770.445273E-06
               87                3   10.6665678E-03   20.6199717E-03               0.  -2.46248720E-03
               87                4   10.6367320E-03   19.3245281E-03               0.  -1.24593312E-03
               88                1   12.3747122E-03   27.9183313E-03               0.  -4.10011830E-03
               88                2   9.90165677E-03   20.2388708E-03               0.  -4.93775727E-03
               88                3   10.8594093E-03   25.8105081E-03               0.  -6.58111321E-03
               88                4   8.47524125E-03   18.7482145E-03               0.  -7.64201256E-03
               89                1   11.6534093E-03   18.0032700E-03               0.  -1.66877639E-03
               89                2   11.1126760E-03   15.7672651E-03               0.  -1.49459613E-03
               89                3   12.3146642E-03   18.0516429E-03               0.  -2.29748804E-03
               89                4   11.8600028E-03   15.9466434E-03               0.  -2.18694168E-03
               90                1   11.1115184E-03   12.6434797E-03               0.  -2.70779757E-03
               90                2   10.7843643E-03   12.5792604E-03               0.  -3.13545158E-03
               90                3   11.6434284E-03   14.0928496E-03               0.  -2.43558059E-03
               90                4   11.3627343E-03   14.1136907E-03               0.  -2.82641477E-03
               91                1   8.79855920E-03   7.97126256E-03               0.  -3.64294369E-03
               91                2   6.47123018E-03   7.29754427E-03               0.  -3.83006735E-03
               91                3   9.83678084E-03   8.90481845E-03               0.  -2.68118014E-03
               91                4   7.58601073E-03   8.31482559E-03               0.  -2.77553475E-03
               92                1   2.47907219E-03   3.58550483E-03               0.  -3.48087517E-03
               92                2  -6.06928719E-03   984.216109E-06               0.  -3.01252678E-03
               92                3   4.67120437E-03   3.30548314E-03               0.  -527.378055E-06
               92                4  -4.60686954E-03   363.640604E-06               0.   367.960718E-06
               93                1   8.21666606E-03   17.2304418E-03               0.  -7.73522630E-03
               93                2   6.32543303E-03   17.3581876E-03               0.  -8.95296037E-03
               93                3   10.4028285E-03   21.9430551E-03               0.  -6.34078030E-03
               93                4   8.92720465E-03   22.6169359E-03               0.  -7.29145668E-03
               94                1   4.98247333E-03   12.7879577E-03               0.  -9.26966965E-03
               94                2   3.12002655E-03   12.8438398E-03               0.  -9.97935422E-03
               94                3   6.93854922E-03   16.0500314E-03               0.  -7.97542650E-03
               94                4   5.33709489E-03   16.5057778E-03               0.  -8.51727184E-03
               95                1   3.79457045E-03   7.54976040E-03               0.  -7.64475903E-03
               95                2  -481.988798E-06   6.10739598E-03               0.  -7.01102987E-03
               95                3   5.76498965E-03   7.51586352E-03               0.  -6.13528350E-03
               95                4   1.69653667E-03   6.04007626E-03               0.  -5.27018821E-03
               96                1   10.5973352E-03   38.2365361E-03               0.   16.1115900E-03
               96                2   14.0297823E-03   34.8624811E-03               0.   17.4022131E-03
               96                3   6.58773864E-03   31.7855626E-03               0.   13.5604208E-03
               96                4   9.79072601E-03   29.1681383E-03               0.   14.8180341E-03
               97                1   6.34088181E-03   35.3771597E-03               0.   8.59471504E-03
               97                2   5.41110570E-03   32.3610902E-03               0.   10.2643995E-03
               97                3   5.40529517E-03   32.2363302E-03               0.   8.01303610E-03
               97                4   4.55327658E-03   29.4570532E-03               0.   9.43944138E-03
               98                1   6.08391454E-03   31.3156620E-03               0.   7.56614516E-03
               98                2   3.90909193E-03   29.2608570E-03               0.   8.73020384E-03
               98                3   6.19261060E-03   30.2123632E-03               0.   7.73644447E-03
               98                4   4.34158044E-03   28.2771681E-03               0.   8.76277965E-03
               99                1   4.55648033E-03   24.9525812E-03               0.   10.0895502E-03
               99                2   5.72275743E-03   26.6457647E-03               0.   10.9186126E-03
               99                3   4.80496092E-03   22.8508469E-03               0.   10.5714919E-03
               99                4   5.84363658E-03   23.9940509E-03               0.   11.3570020E-03
              100                1   8.06860439E-03   18.4316821E-03               0.   12.6126548E-03
              100                2   10.3849014E-03   20.3991290E-03               0.   13.7546845E-03
              100                3   9.60404240E-03   16.8092698E-03               0.   12.2541711E-03
              100                4   12.2147650E-03   18.5679384E-03               0.   13.3667598E-03
              101                1   6.64454838E-03   6.30319351E-03               0.   5.60013624E-03
              101                2   4.75807255E-03   5.14657237E-03               0.   7.03523261E-03
              101                3   9.15633515E-03   6.90025184E-03               0.   5.80223184E-03
              101                4   7.46958889E-03   5.86557062E-03               0.   7.08318455E-03
              102                1   1.63071777E-03   533.500977E-06               0.   441.443612E-06
              102                2   62.8194830E-06   59.0738091E-06               0.   3.62245226E-03
              102                3   9.20723099E-03   2.80740205E-03               0.   754.815585E-06
              102                4   7.09502865E-03   2.16828729E-03               0.   3.69581627E-03
              103                1   10.1110013E-03   15.8358086E-03               0.   6.67745620E-03
              103                2   6.93951687E-03   9.32834763E-03               0.   8.69729742E-03
              103                3   11.9449627E-03   15.0868390E-03               0.   5.46225812E-03
              103                4   9.27851908E-03   9.26048867E-03               0.   7.15521956E-03
              104                1   11.7073199E-03   5.74462535E-03               0.   2.66180909E-03
              104                2   10.3043765E-03   3.72323068E-03               0.   3.96339921E-03
              104                3   14.2763127E-03   6.40817778E-03               0.   2.24402524E-03
              104                4   12.9864058E-03   4.49329522E-03               0.   3.47578246E-03
              105                1   14.6578904E-03   5.55987144E-03               0.   3.01843742E-03
              105                2   16.6094210E-03   6.21179538E-03               0.   1.94513414E-03
              105                3   16.0398725E-03   8.80360231E-03               0.   2.07621511E-03
              105                4   17.9301612E-03   9.60464403E-03               0.   1.02673646E-03
              106                1   17.4906757E-03   6.24847924E-03               0.   1.38869544E-03
              106                2   18.3208305E-03   6.58077421E-03               0.   324.228517E-06
              106                3   18.3832049E-03   8.98983795E-03               0.   1.03378424E-03
              106                4   19.2239862E-03   9.51762311E-03               0.   19.9323695E-06
              107                1   9.83647164E-03   9.31523833E-03               0.   6.94994861E-03
              107                2   13.2368049E-03   11.5921851E-03               0.   3.72423208E-03
              107                3   12.9297273E-03   17.3129942E-03               0.   5.23910159E-03
              107                4   16.2914023E-03   20.2792287E-03               0.   2.20088335E-03
              108                1   14.0547473E-03   9.76694748E-03               0.   2.83624954E-03
              108                2   16.1793064E-03   11.3564888E-03               0.   439.334108E-06
              108                3   15.7980192E-03   15.1511580E-03               0.   2.13986170E-03
              108                4   17.9394893E-03   17.0873906E-03               0.  -168.155544E-06
              109                1   14.0210195E-03   19.6536202E-03               0.   174.096902E-06
              109                2   16.0452798E-03   26.4755022E-03               0.  -124.799888E-06
              109                3   12.1983094E-03   17.1900522E-03               0.   3.05519998E-03
              109                4   14.0286395E-03   23.5592071E-03               0.   2.91729043E-03
              110                1   10.9305121E-03   30.1412344E-03               0.   592.880300E-06
              110                2   13.7925064E-03   39.7790037E-03               0.   382.864149E-06
              110                3   8.88360199E-03   26.4727119E-03               0.   4.39939182E-03
              110                4   11.5938587E-03   35.9077491E-03               0.   4.52150172E-03
              111                1   3.85003327E-03   44.7015502E-03               0.   2.07345211E-03
              111                2   8.45250580E-03   59.9275306E-03               0.   2.65574385E-03
              111                3   3.72237060E-03   40.7527871E-03               0.   7.51929637E-03
              111                4   8.84695072E-03   57.3553406E-03               0.   8.71653855E-03
              112                1   11.5497978E-03   22.1478492E-03               0.   3.93412821E-03
              112                2   13.4571753E-03   29.9873184E-03               0.   3.41835665E-03
              112                3   7.34357676E-03   18.1663800E-03               0.   7.55059160E-03
              112                4   8.61622673E-03   24.9598473E-03               0.   7.48005370E-03
              113                1   9.14202351E-03   33.0065154E-03               0.   4.93930746E-03
              113                2   11.2029267E-03   40.1588008E-03               0.   5.37482323E-03
              113                3   7.62182521E-03   29.4015650E-03               0.   7.92815164E-03
              113                4   9.48353298E-03   36.0874124E-03               0.   8.70994199E-03
              114                1   5.13938954E-03   41.7561382E-03               0.   9.94259119E-03
              114                2   9.71227884E-03   54.1077182E-03               0.   12.3495990E-03
              114                3   7.90289417E-03   37.4834090E-03               0.   14.0371146E-03
              114                4   12.9174311E-03   49.5183133E-03               0.   17.0154776E-03
              115                1   11.6770519E-03   39.3791683E-03               0.   17.3794124E-03
              115                2   16.2855741E-03   35.0783542E-03               0.   18.8177824E-03
              115                3   7.55192246E-03   32.5804241E-03               0.   14.7091281E-03
              115                4   11.6448179E-03   28.9636459E-03               0.   16.0147026E-03
              116                1   7.13293813E-03   35.4930609E-03               0.   10.4393587E-03
              116                2   7.64005259E-03   32.5040966E-03               0.   11.6327712E-03
              116                3   5.86083811E-03   32.5238705E-03               0.   9.66922380E-03
              116                4   6.11481490E-03   29.5505356E-03               0.   10.5788140E-03
              117                1   4.61171847E-03   28.9454050E-03               0.   10.3171030E-03
              117                2   3.84899718E-03   28.8204364E-03               0.   10.1297041E-03
              117                3   3.49727203E-03   28.4468420E-03               0.   10.7509000E-03
              117                4   2.69526942E-03   28.2712616E-03               0.   10.6533403E-03
              118                1   4.18327050E-03   26.4375377E-03               0.   10.2795959E-03
              118                2   4.12458880E-03   27.8795976E-03               0.   10.7290279E-03
              118                3   2.83142133E-03   23.7069651E-03               0.   11.2244673E-03
              118                4   2.58018263E-03   24.7115195E-03               0.   11.7942626E-03
              119                1   6.29413873E-03   18.9173333E-03               0.   11.6192764E-03
              119                2   8.24904162E-03   20.8130088E-03               0.   12.6558281E-03
              119                3   7.14689586E-03   17.3854511E-03               0.   11.4336656E-03
              119                4   9.33984295E-03   19.1412196E-03               0.   12.4966111E-03
              120                1   1.69001403E-03   6.12962106E-03               0.   5.30379079E-03
              120                2  -442.345307E-06   6.23236876E-03               0.   7.01734005E-03
              120                3   5.73481200E-03   7.61117460E-03               0.   6.18098397E-03
              120                4   3.81998438E-03   7.68087059E-03               0.   7.66824000E-03
              121                1  -4.58488055E-03   346.961198E-06               0.  -353.953685E-06
              121                2  -6.02739863E-03   990.155735E-06               0.   3.02069471E-03
              121                3   4.63921251E-03   3.27964989E-03               0.   559.289881E-06
              121                4   2.50284746E-03   3.58780986E-03               0.   3.49811185E-03
              122                1   5.37661649E-03   16.5663343E-03               0.   8.55579600E-03
              122                2   3.13759525E-03   12.7969822E-03               0.   10.0299520E-03
              122                3   6.93965051E-03   16.0941724E-03               0.   7.99207948E-03
              122                4   4.95254807E-03   12.7365058E-03               0.   9.30137467E-03
              123                1   7.60587770E-03   8.36631469E-03               0.   2.78096716E-03
              123                2   6.48404099E-03   7.31146941E-03               0.   3.84235778E-03
              123                3   9.86064505E-03   8.95662513E-03               0.   2.67132232E-03
              123                4   8.79352167E-03   7.97988288E-03               0.   3.64462612E-03
              124                1   8.89615342E-03   22.5680266E-03               0.   7.29194796E-03
              124                2   6.28885115E-03   17.3241217E-03               0.   8.95830523E-03
              124                3   10.3818206E-03   21.8989886E-03               0.   6.34337682E-03
              124                4   8.19739327E-03   17.1989556E-03               0.   7.73856184E-03
              125                1   11.3433767E-03   14.0803335E-03               0.   2.82105897E-03
              125                2   10.7632345E-03   12.5655718E-03               0.   3.13727045E-03
              125                3   11.6384728E-03   14.0651036E-03               0.   2.43610051E-03
              125                4   11.1059528E-03   12.6348287E-03               0.   2.71499832E-03
              126                1   11.8603110E-03   15.9432795E-03               0.   2.18823901E-03
              126                2   11.1171212E-03   15.7643817E-03               0.   1.49817672E-03
              126                3   12.3080285E-03   18.0315003E-03               0.   2.29362212E-03
              126                4   11.6514387E-03   17.9814044E-03               0.   1.66811410E-03
              127                1   10.6415087E-03   19.3261951E-03               0.   1.24612497E-03
              127                2   6.87167933E-03   18.2360392E-03               0.   770.183862E-06
              127                3   10.6658880E-03   20.6188355E-03               0.   2.46141688E-03
              127                4   7.20512960E-03   19.7110102E-03               0.   2.11482635E-03
              128                1   8.46988987E-03   18.7374000E-03               0.   7.64482608E-03
              128                2   9.89814755E-03   20.2179197E-03               0.   4.93696565E-03
              128                3   10.8503839E-03   25.7888567E-03               0.   6.58683805E-03
              128                4   12.3688243E-03   27.8904065E-03               0.   4.10074648E-03
              129                1   9.42882337E-03   21.6516834E-03               0.   5.20101888E-03
              129                2   7.39860022E-03   21.8008161E-03               0.   3.44654475E-03
              129                3   10.6252478E-03   26.1996016E-03               0.   5.73192071E-03
              129                4   8.81374162E-03   26.6767852E-03               0.   4.13427642E-03
              130                1   9.25328583E-03   30.2872919E-03               0.   4.85091144E-03
              130                2   11.3840913E-03   37.3633951E-03               0.   5.03792334E-03
              130                3   9.05040093E-03   28.3700377E-03               0.   7.68208411E-03
              130                4   11.1351665E-03   35.2419466E-03               0.   7.98183307E-03
              131                1   11.2288734E-03   42.9300554E-03               0.   5.10653574E-03
              131                2   14.3599724E-03   53.7491217E-03               0.   3.56500200E-03
              131                3   4.54561925E-03   38.0281731E-03               0.   10.2034779E-03
              131                4   7.55425682E-03   49.6603251E-03               0.   8.81579053E-03
              132                1   8.68158042E-03   29.5659527E-03               0.   7.10274791E-03
              132                2   11.4953266E-03   39.0155427E-03               0.   7.54809985E-03
              132                3   7.45519204E-03   26.0863733E-03               0.   10.9450035E-03
              132                4   9.90999769E-03   34.4324298E-03               0.   11.7836324E-03
              133                1   4.54712659E-03   41.0522670E-03               0.   12.2435391E-03
              133                2   8.63573793E-03   52.0590022E-03               0.   14.5586543E-03
              133                3   8.66045058E-03   37.3347476E-03               0.   16.1958020E-03
              133                4   13.2021233E-03   47.9558297E-03               0.   18.9319700E-03
              134                1   12.2129703E-03   18.5733549E-03               0.  -13.3606549E-03
              134                2   10.3817135E-03   20.3916598E-03               0.  -13.7505326E-03
              134                3   9.60558094E-03   16.8184284E-03               0.  -12.2507680E-03
              134                4   8.06672405E-03   18.4289198E-03               0.  -12.6102632E-03
              135                1   5.84949460E-03   24.0292307E-03               0.  -11.3437297E-03
              135                2   5.71465818E-03   26.6437288E-03               0.  -10.9139364E-03
              135                3   4.81014932E-03   22.8897482E-03               0.  -10.5638541E-03
              135                4   4.54800809E-03   24.9597561E-03               0.  -10.0885732E-03
              136                1   4.33231099E-03   28.2784514E-03               0.  -8.76084529E-03
              136                2   3.90506210E-03   29.2922538E-03               0.  -8.73384811E-03
              136                3   6.18938357E-03   30.2319061E-03               0.  -7.72642158E-03
              136                4   6.08882401E-03   31.3598998E-03               0.  -7.55931763E-03
              137                1   4.55392199E-03   29.4896327E-03               0.  -9.45891812E-03
              137                2   5.39613189E-03   32.3401988E-03               0.  -10.2704791E-03
              137                3   5.40055614E-03   32.2517827E-03               0.  -8.02499894E-03
              137                4   6.33459957E-03   35.3869013E-03               0.  -8.60501360E-03
              138                1   9.72203817E-03   29.0840194E-03               0.  -14.7401774E-03
              138                2   14.0415356E-03   34.8739512E-03               0.  -17.3712689E-03
              138                3   6.53021690E-03   31.7721590E-03               0.  -13.5069024E-03
              138                4   10.5937971E-03   38.2778943E-03               0.  -16.0900950E-03
              139                1   12.9050175E-03   49.4780093E-03               0.  -16.9894286E-03
              139                2   9.73045826E-03   54.0236272E-03               0.  -12.3460079E-03
              139                3   7.87012931E-03   37.4337807E-03               0.  -13.9885321E-03
              139                4   5.11870719E-03   41.6248590E-03               0.  -9.90719907E-03
              140                1   8.90382938E-03   57.3506169E-03               0.  -8.74695368E-03
              140                2   8.46028887E-03   59.9015243E-03               0.  -2.65868381E-03
              140                3   3.76642100E-03   40.7400206E-03               0.  -7.50592491E-03
              140                4   3.83568555E-03   44.6106419E-03               0.  -2.05440703E-03
              141                1   9.44642816E-03   36.0195152E-03               0.  -8.68126005E-03
              141                2   11.1838020E-03   40.0674045E-03               0.  -5.34464000E-03
              141                3   7.62367854E-03   29.4541027E-03               0.  -7.93065503E-03
              141                4   9.17267893E-03   33.0814533E-03               0.  -4.94321994E-03
              142                1   11.5809292E-03   35.8985551E-03               0.  -4.52386541E-03
              142                2   13.7842149E-03   39.7497490E-03               0.  -376.267126E-06
              142                3   8.86422768E-03   26.4555756E-03               0.  -4.42367420E-03
              142                4   10.9460894E-03   30.1965121E-03               0.  -592.919823E-06
              143                1   8.61452147E-03   25.0465982E-03               0.  -7.48310378E-03
              143                2   13.4530971E-03   30.1001370E-03               0.  -3.41993687E-03
              143                3   7.33556738E-03   18.2354022E-03               0.  -7.55204633E-03
              143                4   11.5336059E-03   22.2140364E-03               0.  -3.93533288E-03
              144                1   14.0025523E-03   23.5606525E-03               0.  -2.91238981E-03
              144                2   16.0544980E-03   26.5322812E-03               0.   127.518273E-06
              144                3   12.1759521E-03   17.1988737E-03               0.  -3.05628963E-03
              144                4   14.0303886E-03   19.7093692E-03               0.  -178.211121E-06
              145                1   17.9491062E-03   17.1372611E-03               0.   172.311105E-06
              145                2   16.1805488E-03   11.3781318E-03               0.  -439.921132E-06
              145                3   15.7891829E-03   15.1668191E-03               0.  -2.14135298E-03
              145                4   14.0426336E-03   9.76858567E-03               0.  -2.83932709E-03
              146                1   19.2268547E-03   9.53138340E-03               0.  -17.6127214E-06
              146                2   18.3205567E-03   6.58405945E-03               0.  -323.148910E-06
              146                3   18.3822643E-03   8.99816956E-03               0.  -1.03398773E-03
              146                4   17.4877401E-03   6.24970300E-03               0.  -1.38953794E-03
              147                1   16.2851047E-03   20.3217342E-03               0.  -2.20434112E-03
              147                2   13.2274991E-03   11.6096968E-03               0.  -3.72439716E-03
              147                3   12.9330177E-03   17.3659194E-03               0.  -5.24090696E-03
              147                4   9.83479526E-03   9.34023224E-03               0.  -6.95100008E-03
              148                1   17.9259554E-03   9.60509945E-03               0.  -1.02913065E-03
              148                2   16.6067276E-03   6.21174090E-03               0.  -1.94619235E-03
              148                3   16.0397235E-03   8.80680420E-03               0.  -2.07724748E-03
              148                4   14.6584800E-03   5.56124328E-03               0.  -3.01873777E-03
              149                1   12.9884388E-03   4.49561840E-03               0.  -3.47619900E-03
              149                2   10.3078987E-03   3.72625864E-03               0.  -3.96487350E-03
              149                3   14.2779825E-03   6.41456293E-03               0.  -2.24444247E-03
              149                4   11.7112771E-03   5.75254066E-03               0.  -2.66285031E-03
              150                1   7.09873438E-03   2.16885610E-03               0.  -3.69813642E-03
              150                2   68.5015402E-06   60.1899847E-06               0.  -3.62388301E-03
              150                3   9.20729619E-03   2.80512217E-03               0.  -758.573820E-06
              150                4   1.63507299E-03   532.318722E-06               0.  -443.290191E-06
              151                1   9.27256048E-03   9.27594863E-03               0.  -7.15963123E-03
              151                2   6.94910996E-03   9.35268868E-03               0.  -8.69883969E-03
              151                3   11.9267199E-03   15.0911231E-03               0.  -5.47610223E-03
              151                4   10.1100700E-03   15.8521850E-03               0.  -6.68689096E-03
              152                1   7.47476844E-03   5.87706454E-03               0.  -7.08765490E-03
              152                2   4.76635201E-03   5.15810214E-03               0.  -7.03690015E-03
              152                3   9.15549323E-03   6.90261507E-03               0.  -5.80995390E-03
              152                4   6.64733909E-03   6.30498724E-03               0.  -5.60512207E-03


********************************************************************************
Field Output Report, written Tue Jun 03 12:18:21 2025

Source 1
---------

   ODB: C:/lnms/Vid/VF/LinearnaPolja/PoljeU2/PoljeU2.odb
   Step: loading
   Frame: Increment     10: Step Time =    1.000

Loc 1 : Integration point values from source 1

Output sorted by column "Element Label".

Field Output reported at integration points for part: SPECIMEN-1

          Element              Int            S.S11            S.S22            S.S33            S.S12
            Label               Pt           @Loc 1           @Loc 1           @Loc 1           @Loc 1
-------------------------------------------------------------------------------------------------------
                1                1   13.5409599E-03   20.7108539E-03               0.  -14.8345334E-03
                1                2   11.4815161E-03   22.7235183E-03               0.  -15.2629986E-03
                1                3   10.6356302E-03   18.7478382E-03               0.  -13.5951201E-03
                1                4   8.90388992E-03   20.5314811E-03               0.  -13.9907235E-03
                2                1   6.47910684E-03   26.6971663E-03               0.  -12.5539014E-03
                2                2   6.32438995E-03   29.5595955E-03               0.  -12.0776957E-03
                2                3   5.33657055E-03   25.4396573E-03               0.  -11.6973314E-03
                2                4   5.04275179E-03   27.7050752E-03               0.  -11.1718429E-03
                3                1   4.80935071E-03   31.3632190E-03               0.  -9.70298611E-03
                3                2   4.35276935E-03   32.4978940E-03               0.  -9.67747718E-03
                3                3   6.84995297E-03   33.5227735E-03               0.  -8.56141094E-03
                3                4   6.75038574E-03   34.7811729E-03               0.  -8.38070828E-03
                4                1   5.07289916E-03   32.7371359E-03               0.  -10.4820840E-03
                4                2   6.01754291E-03   35.8936936E-03               0.  -11.3799255E-03
                4                3   5.97968092E-03   35.7652865E-03               0.  -8.90273787E-03
                4                4   7.02128047E-03   39.2313823E-03               0.  -9.54575092E-03
                5                1   10.7400389E-03   32.3656388E-03               0.  -16.3383316E-03
                5                2   15.5151458E-03   38.7962051E-03               0.  -19.2502867E-03
                5                3   7.18713365E-03   35.3201181E-03               0.  -14.9584748E-03
                5                4   11.6788819E-03   42.5380282E-03               0.  -17.8164672E-03
                6                1   14.1961584E-03   54.9026988E-03               0.  -18.7845509E-03
                6                2   10.6958328E-03   59.8798506E-03               0.  -13.6548020E-03
                6                3   8.65454786E-03   41.6053273E-03               0.  -15.4894963E-03
                6                4   5.61677897E-03   46.2013260E-03               0.  -10.9746018E-03
                7                1   9.77050420E-03   63.5320768E-03               0.  -9.65247024E-03
                7                2   9.28936340E-03   66.3323551E-03               0.  -2.94760708E-03
                7                3   4.11126763E-03   45.2231131E-03               0.  -8.29719100E-03
                7                4   4.19398956E-03   49.4839810E-03               0.  -2.28356151E-03
                8                1   10.4496768E-03   39.9839580E-03               0.  -9.65435151E-03
                8                2   12.3349484E-03   44.4374345E-03               0.  -5.96223073E-03
                8                3   8.41883849E-03   32.7013806E-03               0.  -8.82012304E-03
                8                4   10.0999475E-03   36.6955251E-03               0.  -5.51237212E-03
                9                1   12.7484202E-03   39.8551226E-03               0.  -5.02846064E-03
                9                2   15.1778618E-03   44.1090576E-03               0.  -436.748698E-06
                9                3   9.73673631E-03   29.3915104E-03               0.  -4.91911964E-03
                9                4   12.0339990E-03   33.5286371E-03               0.  -674.304029E-06
               10                1   9.52775311E-03   27.8239194E-03               0.  -8.31836276E-03
               10                2   14.8547366E-03   33.3927684E-03               0.  -3.82356020E-03
               10                3   8.09877366E-03   20.2708095E-03               0.  -8.39394890E-03
               10                4   12.7204340E-03   24.6564802E-03               0.  -4.39009024E-03
               11                1   15.4449549E-03   26.1789709E-03               0.  -3.24664009E-03
               11                2   17.7116990E-03   29.4691306E-03               0.   126.048704E-06
               11                3   13.4155620E-03   19.1150345E-03               0.  -3.40608973E-03
               11                4   15.4645266E-03   21.8960457E-03               0.  -210.824175E-06
               12                1   19.8259279E-03   19.0418083E-03               0.   180.636795E-06
               12                2   17.8604331E-03   12.6415510E-03               0.  -495.926070E-06
               12                3   17.4387470E-03   16.8588385E-03               0.  -2.38910969E-03
               12                4   15.4974377E-03   10.8586531E-03               0.  -3.16268182E-03
               13                1   21.2605502E-03   10.5860159E-03               0.  -25.7059128E-06
               13                2   20.2475768E-03   7.29089649E-03               0.  -363.127881E-06
               13                3   20.3280039E-03   9.99395363E-03               0.  -1.16143748E-03
               13                4   19.3288084E-03   6.92124944E-03               0.  -1.55543291E-03
               14                1   17.9917105E-03   22.5568190E-03               0.  -2.47074361E-03
               14                2   14.6023240E-03   12.9005061E-03               0.  -4.15303372E-03
               14                3   14.2923202E-03   19.2951802E-03               0.  -5.83447469E-03
               14                4   10.8569227E-03   10.3986636E-03               0.  -7.73050077E-03
               15                1   19.8266115E-03   10.6666610E-03               0.  -1.16655545E-03
               15                2   18.3580983E-03   6.88122492E-03               0.  -2.18031765E-03
               15                3   17.7467652E-03   9.78486333E-03               0.  -2.33492395E-03
               15                4   16.2101053E-03   6.16452005E-03               0.  -3.37696238E-03
               16                1   14.3673467E-03   4.98534460E-03               0.  -3.88990506E-03
               16                2   11.4115914E-03   4.13866201E-03               0.  -4.43775300E-03
               16                3   15.8009585E-03   7.13305455E-03               0.  -2.52869306E-03
               16                4   12.9719153E-03   6.40656240E-03               0.  -2.99833366E-03
               17                1   7.86186941E-03   2.40865909E-03               0.  -4.14345739E-03
               17                2   69.0742527E-06   71.3833724E-06               0.  -4.06015757E-03
               17                3   10.2087362E-03   3.11922631E-03               0.  -887.048373E-06
               17                4   1.81776448E-03   600.708125E-06               0.  -534.017337E-06
               18                1   10.2416966E-03   10.3280488E-03               0.  -7.96443876E-03
               18                2   7.67132174E-03   10.4238344E-03               0.  -9.66840424E-03
               18                3   13.1868273E-03   16.7702585E-03               0.  -6.09652931E-03
               18                4   11.1796437E-03   17.6230278E-03               0.  -7.43527431E-03
               19                1   8.28947779E-03   6.57024793E-03               0.  -7.89021421E-03
               19                2   5.32879634E-03   5.78848785E-03               0.  -7.83660915E-03
               19                3   10.1433052E-03   7.71158561E-03               0.  -6.49061473E-03
               19                4   7.40417419E-03   7.06498744E-03               0.  -6.26795134E-03
               20                1   10.4347281E-03   21.2879181E-03               0.  -13.8767958E-03
               20                2   9.18165781E-03   23.2575666E-03               0.  -14.0481126E-03
               20                3   7.90617615E-03   19.2439668E-03               0.  -12.6419924E-03
               20                4   6.94480585E-03   21.0622028E-03               0.  -12.8545640E-03
               21                1   2.91308039E-03   27.4558757E-03               0.  -13.0679896E-03
               21                2   4.61178133E-03   30.9644584E-03               0.  -11.8964557E-03
               21                3   3.17935925E-03   26.3296198E-03               0.  -12.4357864E-03
               21                4   4.66749398E-03   29.3318164E-03               0.  -11.3885785E-03
               22                1   2.99018505E-03   31.4166844E-03               0.  -11.7624542E-03
               22                2   4.27633710E-03   31.9469944E-03               0.  -11.2026138E-03
               22                3   3.89857916E-03   31.6423476E-03               0.  -11.8932445E-03
               22                4   5.13991201E-03   32.1320072E-03               0.  -11.4323571E-03
               23                1   6.80040475E-03   32.8118503E-03               0.  -11.7382156E-03
               23                2   8.48886557E-03   36.0867307E-03               0.  -12.9027050E-03
               23                3   6.50229910E-03   36.0879116E-03               0.  -10.7216844E-03
               23                4   7.91019201E-03   39.3827036E-03               0.  -11.5718627E-03
               24                1   12.8631210E-03   32.2453640E-03               0.  -17.7608225E-03
               24                2   17.9623198E-03   39.0005782E-03               0.  -20.8458230E-03
               24                3   8.33150931E-03   36.2085328E-03               0.  -16.2987094E-03
               24                4   12.8649212E-03   43.7179841E-03               0.  -19.2371607E-03
               25                1   14.5184724E-03   53.2117523E-03               0.  -20.9361967E-03
               25                2   9.49101616E-03   57.7157475E-03               0.  -16.1072146E-03
               25                3   9.52628627E-03   41.4924249E-03               0.  -17.9347619E-03
               25                4   4.99345502E-03   45.5812588E-03               0.  -13.5646425E-03
               26                1   8.32525641E-03   55.0859869E-03               0.  -9.68880579E-03
               26                2   15.9188751E-03   59.6218668E-03               0.  -3.88301071E-03
               26                3   4.99580195E-03   42.2132351E-03               0.  -11.2518137E-03
               26                4   12.4581028E-03   47.6602912E-03               0.  -5.60494652E-03
               27                1   10.9431185E-03   38.2695012E-03               0.  -13.0675687E-03
               27                2   12.7101429E-03   43.3447100E-03               0.  -8.37120134E-03
               27                3   8.21772218E-03   28.9963037E-03               0.  -12.1533433E-03
               27                4   9.58990958E-03   32.8643955E-03               0.  -7.88710173E-03
               28                1   12.2986557E-03   39.1327702E-03               0.  -8.80051684E-03
               28                2   12.6290042E-03   41.5005945E-03               0.  -5.53877605E-03
               28                3   9.99246072E-03   31.5203443E-03               0.  -8.48552305E-03
               28                4   10.2702957E-03   33.6648673E-03               0.  -5.34604257E-03
               29                1   9.78796650E-03   29.6658780E-03               0.  -4.55952482E-03
               29                2   8.21706560E-03   24.2567603E-03               0.  -3.80717940E-03
               29                3   11.7603168E-03   29.1229412E-03               0.  -6.33066753E-03
               29                4   10.4308352E-03   24.0757708E-03               0.  -5.75318327E-03
               30                1   8.00795946E-03   21.9391640E-03               0.  -2.33564968E-03
               30                2   7.63475755E-03   20.3010235E-03               0.  -851.099263E-06
               30                3   11.8231708E-03   22.9380857E-03               0.  -2.71954993E-03
               30                4   11.7875738E-03   21.5014406E-03               0.  -1.37854845E-03
               31                1   13.6923837E-03   31.0203247E-03               0.  -4.55134176E-03
               31                2   10.9542860E-03   22.5156359E-03               0.  -5.47767570E-03
               31                3   12.0224226E-03   28.6936536E-03               0.  -7.29813939E-03
               31                4   9.38227866E-03   20.8722129E-03               0.  -8.47393554E-03
               32                1   12.9076065E-03   20.0408865E-03               0.  -1.84958824E-03
               32                2   12.3091675E-03   17.5656807E-03               0.  -1.65689015E-03
               32                3   13.6396484E-03   20.0947709E-03               0.  -2.54555815E-03
               32                4   13.1365499E-03   17.7647322E-03               0.  -2.42348597E-03
               33                1   12.3056294E-03   14.0938917E-03               0.  -3.00410227E-03
               33                2   11.9542265E-03   14.0265431E-03               0.  -3.47736222E-03
               33                3   12.8909647E-03   15.6964157E-03               0.  -2.70692515E-03
               33                4   12.5903115E-03   15.7229286E-03               0.  -3.13960295E-03
               34                1   9.75554157E-03   8.89471360E-03               0.  -4.04607970E-03
               34                2   7.20040407E-03   8.15571100E-03               0.  -4.25338000E-03
               34                3   10.8992849E-03   9.92728304E-03               0.  -2.98942300E-03
               34                4   8.42893124E-03   9.28109325E-03               0.  -3.09459004E-03
               35                1   2.78134388E-03   3.99924954E-03               0.  -3.87171074E-03
               35                2  -6.67069713E-03   1.12198375E-03               0.  -3.34936799E-03
               35                3   5.21124667E-03   3.68488673E-03               0.  -609.841140E-06
               35                4  -5.04497625E-03   429.947599E-06               0.   388.077722E-06
               36                1   9.09249391E-03   19.1801731E-03               0.  -8.58684164E-03
               36                2   7.00453110E-03   19.3259772E-03               0.  -9.92799271E-03
               36                3   11.5075503E-03   24.3756045E-03               0.  -7.04581849E-03
               36                4   9.87953600E-03   25.1228996E-03               0.  -8.09151120E-03
               37                1   5.51526342E-03   14.2570417E-03               0.  -10.2870967E-03
               37                2   3.45043908E-03   14.3225975E-03               0.  -11.0691590E-03
               37                3   7.68654281E-03   17.8639963E-03               0.  -8.85148440E-03
               37                4   5.91216702E-03   18.3715913E-03               0.  -9.44701862E-03
               38                1   4.22236649E-03   8.43944028E-03               0.  -8.50169174E-03
               38                2  -477.067282E-06   6.85223145E-03               0.  -7.80001143E-03
               38                3   6.40311185E-03   8.40585865E-03               0.  -6.84589148E-03
               38                4   1.93576468E-03   6.78222207E-03               0.  -5.88965835E-03
               39                1   12.8696058E-03   43.7162258E-03               0.   19.2402638E-03
               39                2   17.9697946E-03   38.9972031E-03               0.   20.8469462E-03
               39                3   8.32731929E-03   36.2018496E-03               0.   16.2970070E-03
               39                4   12.8599703E-03   32.2312489E-03               0.   17.7560113E-03
               40                1   7.89788272E-03   39.3660069E-03               0.   11.5789324E-03
               40                2   8.48706160E-03   36.0795856E-03               0.   12.8983660E-03
               40                3   6.48619281E-03   36.0768773E-03               0.   10.7243787E-03
               40                4   6.79082191E-03   32.8030288E-03               0.   11.7298812E-03
               41                1   5.13140624E-03   32.1291238E-03               0.   11.4301341E-03
               41                2   4.27480601E-03   31.9750160E-03               0.   11.2131266E-03
               41                3   3.88763053E-03   31.5940678E-03               0.   11.9067272E-03
               41                4   2.98788515E-03   31.3887224E-03               0.   11.7901582E-03
               42                1   4.64225980E-03   29.3547641E-03               0.   11.3761593E-03
               42                2   4.57167253E-03   30.9419017E-03               0.   11.8643837E-03
               42                3   3.14631313E-03   26.3574738E-03               0.   12.4209886E-03
               42                4   2.86271051E-03   27.4647325E-03               0.   13.0426809E-03
               43                1   6.95551839E-03   21.0869927E-03               0.   12.8946789E-03
               43                2   9.13963560E-03   23.2088305E-03               0.   14.0537070E-03
               43                3   7.92390388E-03   19.3878915E-03               0.   12.6895690E-03
               43                4   10.3760352E-03   21.3562082E-03               0.   13.8785988E-03
               44                1   1.92812714E-03   6.88155740E-03               0.   5.92648098E-03
               44                2  -433.548819E-06   6.99079316E-03               0.   7.80675607E-03
               44                3   6.36936864E-03   8.51164479E-03               0.   6.89598778E-03
               44                4   4.25006123E-03   8.58481973E-03               0.   8.52732547E-03
               45                1  -5.02061751E-03   411.743415E-06               0.  -372.389011E-06
               45                2  -6.62432192E-03   1.12862966E-03               0.   3.35849100E-03
               45                3   5.17560448E-03   3.65649839E-03               0.   645.198685E-06
               45                4   2.80738901E-03   4.00180044E-03               0.   3.89080262E-03
               46                1   5.95573569E-03   18.4388384E-03               0.   9.48947389E-03
               46                2   3.46950465E-03   14.2709194E-03               0.   11.1252777E-03
               46                3   7.68786855E-03   17.9130323E-03               0.   8.86971410E-03
               46                4   5.48204966E-03   14.2002543E-03               0.   10.3222253E-03
               47                1   8.45092256E-03   9.33825597E-03               0.   3.10060522E-03
               47                2   7.21447449E-03   8.17117002E-03               0.   4.26700432E-03
               47                3   10.9257130E-03   9.98476893E-03               0.   2.97853141E-03
               47                4   9.75007098E-03   8.90434626E-03               0.   4.04794794E-03
               48                1   9.84527078E-03   25.0686873E-03               0.   8.09202902E-03
               48                2   6.96411310E-03   19.2881599E-03               0.   9.93386842E-03
               48                3   11.4844106E-03   24.3267454E-03               0.   7.04867858E-03
               48                4   9.07123368E-03   19.1452000E-03               0.   8.59053247E-03
               49                1   12.5688603E-03   15.6858414E-03               0.   3.13365785E-03
               49                2   11.9309239E-03   14.0113663E-03               0.   3.47933942E-03
               49                3   12.8854439E-03   15.6655516E-03               0.   2.70751561E-03
               49                4   12.2995293E-03   14.0842926E-03               0.   3.01207299E-03
               50                1   13.1369550E-03   17.7610051E-03               0.   2.42491113E-03
               50                2   12.3140728E-03   17.5624620E-03               0.   1.66086084E-03
               50                3   13.6323348E-03   20.0724155E-03               0.   2.54130433E-03
               50                4   12.9053798E-03   20.0165994E-03               0.   1.84889697E-03
               51                1   11.7928488E-03   21.5032902E-03               0.   1.37876323E-03
               51                2   7.63571262E-03   20.3013830E-03               0.   850.808457E-06
               51                3   11.8224313E-03   22.9368452E-03               0.   2.71837017E-03
               51                4   8.00661556E-03   21.9368562E-03               0.   2.33384385E-03
               52                1   9.37638525E-03   20.8602324E-03               0.   8.47707968E-03
               52                2   10.9504014E-03   22.4923864E-03               0.   5.47684310E-03
               52                3   12.0124575E-03   28.6696311E-03               0.   7.30451010E-03
               52                4   13.6858616E-03   30.9893135E-03               0.   4.55208262E-03
               53                1   10.4383305E-03   24.0774062E-03               0.   5.75176207E-03
               53                2   8.21799506E-03   24.2525078E-03               0.   3.80484527E-03
               53                3   11.7671862E-03   29.1197542E-03               0.   6.33095996E-03
               53                4   9.78808384E-03   29.6581388E-03               0.   4.55844775E-03
               54                1   10.2686910E-03   33.6564369E-03               0.   5.34577668E-03
               54                2   12.6276379E-03   41.4926633E-03               0.   5.53961471E-03
               54                3   9.99462046E-03   31.5165147E-03               0.   8.48667510E-03
               54                4   12.3006850E-03   39.1275883E-03               0.   8.80359113E-03
               55                1   12.4564851E-03   47.6533733E-03               0.   5.60556492E-03
               55                2   15.9169603E-03   59.6159846E-03               0.   3.88493249E-03
               55                3   4.99884598E-03   42.2113016E-03               0.   11.2512866E-03
               55                4   8.32474045E-03   55.0807640E-03               0.   9.69208777E-03
               56                1   9.58420429E-03   32.8443833E-03               0.   7.88148865E-03
               56                2   12.7025386E-03   43.3152765E-03               0.   8.37235432E-03
               56                3   8.22807383E-03   29.0007573E-03               0.   12.1424533E-03
               56                4   10.9493984E-03   38.2550210E-03               0.   13.0658858E-03
               57                1   4.99081379E-03   45.5672815E-03               0.   13.5592446E-03
               57                2   9.49311536E-03   57.7025004E-03               0.   16.1064193E-03
               57                3   9.52707138E-03   41.4867736E-03               0.   17.9273412E-03
               57                4   14.5241506E-03   53.2030240E-03               0.   20.9335890E-03
               58                1   11.6823995E-03   42.4928702E-03               0.   17.8401172E-03
               58                2   15.5020887E-03   38.7841091E-03               0.   19.2843210E-03
               58                3   7.25008454E-03   35.3354476E-03               0.   15.0174322E-03
               58                4   10.8155711E-03   32.4594229E-03               0.   16.4241474E-03
               59                1   7.02820206E-03   39.2210782E-03               0.   9.53469798E-03
               59                2   6.03456004E-03   35.9169990E-03               0.   11.3736466E-03
               59                3   5.98454708E-03   35.7481912E-03               0.   8.88963416E-03
               59                4   5.07203816E-03   32.7007920E-03               0.   10.4607474E-03
               60                1   6.74497709E-03   34.7324014E-03               0.   8.38821102E-03
               60                2   4.35698777E-03   32.4629992E-03               0.   9.67335515E-03
               60                3   6.85355114E-03   33.5013084E-03               0.   8.57243501E-03
               60                4   4.81948955E-03   31.3617364E-03               0.   9.70504060E-03
               61                1   5.05207200E-03   27.6970547E-03               0.   11.1729065E-03
               61                2   6.33333158E-03   29.5618419E-03               0.   12.0828450E-03
               61                3   5.33081451E-03   25.3966562E-03               0.   11.7058130E-03
               61                4   6.47263788E-03   26.6583841E-03               0.   12.5686107E-03
               62                1   8.90597608E-03   20.5345508E-03               0.   13.9933806E-03
               62                2   11.4850011E-03   22.7317642E-03               0.   15.2675668E-03
               62                3   10.6339203E-03   18.7377669E-03               0.   13.5989096E-03
               62                4   13.5429129E-03   20.7049195E-03               0.   14.8412874E-03
               63                1   7.40113808E-03   7.06297345E-03               0.   6.26244862E-03
               63                2   5.31968893E-03   5.77571103E-03               0.   7.83477630E-03
               63                3   10.1442654E-03   7.70892575E-03               0.   6.48210151E-03
               63                4   8.28378927E-03   6.55749673E-03               0.   7.88529404E-03
               64                1   1.81293511E-03   601.983222E-06               0.   531.972153E-06
               64                2   62.7803311E-06   70.1364625E-06               0.   4.05857805E-03
               64                3   10.2086775E-03   3.12172296E-03               0.   882.894616E-06
               64                4   7.85777904E-03   2.40802229E-03               0.   4.14089859E-03
               65                1   11.1807175E-03   17.6048353E-03               0.   7.42487656E-03
               65                2   7.66072003E-03   10.3968577E-03               0.   9.66674089E-03
               65                3   13.2070603E-03   16.7654436E-03               0.   6.08126214E-03
               65                4   10.2483174E-03   10.3109032E-03               0.   7.95960985E-03
               66                1   12.9675455E-03   6.39778003E-03               0.   2.99718790E-03
               66                2   11.4077106E-03   4.13530460E-03               0.   4.43613343E-03
               66                3   15.7991294E-03   7.12597882E-03               0.   2.52823741E-03
               66                4   14.3651208E-03   4.98277461E-03               0.   3.88945616E-03
               67                1   16.2094794E-03   6.16299314E-03               0.   3.37664224E-03
               67                2   18.3611158E-03   6.88128266E-03               0.   2.17915792E-03
               67                3   17.7469440E-03   9.78127681E-03               0.   2.33378401E-03
               67                4   19.8312886E-03   10.6661282E-03               0.   1.16390584E-03
               68                1   19.3320867E-03   6.91990275E-03               0.   1.55450765E-03
               68                2   20.2478822E-03   7.28724804E-03               0.   364.324922E-06
               68                3   20.3290656E-03   9.98472236E-03               0.   1.16122118E-03
               68                4   21.2573633E-03   10.5707273E-03               0.   28.2798756E-06
               69                1   10.8588021E-03   10.3709130E-03               0.   7.72938086E-03
               69                2   14.6126915E-03   12.8810825E-03               0.   4.15287726E-03
               69                3   14.2887002E-03   19.2365199E-03               0.   5.83251286E-03
               69                4   17.9987382E-03   22.5097388E-03               0.   2.46692542E-03
               70                1   15.5109325E-03   10.8568426E-03               0.   3.15927784E-03
               70                2   17.8590473E-03   12.6174986E-03               0.   495.265820E-06
               70                3   17.4485892E-03   16.8414675E-03               0.   2.38747452E-03
               70                4   19.8152456E-03   18.9864412E-03               0.  -176.033645E-06
               71                1   15.4541461E-03   21.8341574E-03               0.   206.256969E-06
               71                2   17.7014861E-03   29.4061191E-03               0.  -123.016041E-06
               71                3   13.4404860E-03   19.1052910E-03               0.   3.40489112E-03
               71                4   15.4740047E-03   26.1773933E-03               0.   3.25210229E-03
               72                1   12.0166866E-03   33.4673300E-03               0.   674.215669E-06
               72                2   15.1870223E-03   44.1414528E-03               0.   443.965051E-06
               72                3   9.75793693E-03   29.4103324E-03               0.   4.89222025E-03
               72                4   12.7625018E-03   39.8652367E-03               0.   5.02579566E-03
               73                1   4.20988491E-03   49.5845079E-03               0.   2.30450998E-03
               73                2   9.28074773E-03   66.3609132E-03               0.   2.94433418E-03
               73                3   4.06278623E-03   45.2375412E-03               0.   8.31173453E-03
               73                4   9.70788021E-03   63.5371804E-03               0.   9.61877964E-03
               74                1   12.7384253E-03   24.5831702E-03               0.   4.38874681E-03
               74                2   14.8592256E-03   33.2677253E-03               0.   3.82173737E-03
               74                3   8.10756348E-03   20.1943312E-03               0.   8.39230418E-03
               74                4   9.52949468E-03   27.7277138E-03               0.   8.31490941E-03
               75                1   10.0659886E-03   36.6125517E-03               0.   5.50777651E-03
               75                2   12.3563670E-03   44.5388332E-03               0.   5.99537464E-03
               75                3   8.41640495E-03   32.6431207E-03               0.   8.81717727E-03
               75                4   10.4905171E-03   40.0592722E-03               0.   9.68586188E-03
               76                1   5.63924294E-03   46.3469252E-03               0.   11.0135563E-03
               76                2   10.6751742E-03   59.9725358E-03               0.   13.6585683E-03
               76                3   8.69010109E-03   41.6611657E-03               0.   15.5429505E-03
               76                4   14.2089669E-03   54.9474321E-03               0.   18.8129358E-03
               77                1   10.4347281E-03   21.2879181E-03               0.  -13.8767958E-03
               77                2   9.18165781E-03   23.2575666E-03               0.  -14.0481126E-03
               77                3   7.90617615E-03   19.2439668E-03               0.  -12.6419924E-03
               77                4   6.94480585E-03   21.0622028E-03               0.  -12.8545640E-03
               78                1   2.91308039E-03   27.4558757E-03               0.  -13.0679896E-03
               78                2   4.61178133E-03   30.9644584E-03               0.  -11.8964557E-03
               78                3   3.17935925E-03   26.3296198E-03               0.  -12.4357864E-03
               78                4   4.66749398E-03   29.3318164E-03               0.  -11.3885785E-03
               79                1   2.99018505E-03   31.4166844E-03               0.  -11.7624542E-03
               79                2   4.27633710E-03   31.9469944E-03               0.  -11.2026138E-03
               79                3   3.89857916E-03   31.6423476E-03               0.  -11.8932445E-03
               79                4   5.13991201E-03   32.1320072E-03               0.  -11.4323571E-03
               80                1   6.80040475E-03   32.8118503E-03               0.  -11.7382156E-03
               80                2   8.48886557E-03   36.0867307E-03               0.  -12.9027050E-03
               80                3   6.50229910E-03   36.0879116E-03               0.  -10.7216844E-03
               80                4   7.91019201E-03   39.3827036E-03               0.  -11.5718627E-03
               81                1   12.8631210E-03   32.2453640E-03               0.  -17.7608225E-03
               81                2   17.9623198E-03   39.0005782E-03               0.  -20.8458230E-03
               81                3   8.33150931E-03   36.2085328E-03               0.  -16.2987094E-03
               81                4   12.8649212E-03   43.7179841E-03               0.  -19.2371607E-03
               82                1   14.5184724E-03   53.2117523E-03               0.  -20.9361967E-03
               82                2   9.49101616E-03   57.7157475E-03               0.  -16.1072146E-03
               82                3   9.52628627E-03   41.4924249E-03               0.  -17.9347619E-03
               82                4   4.99345502E-03   45.5812588E-03               0.  -13.5646425E-03
               83                1   8.32525641E-03   55.0859869E-03               0.  -9.68880579E-03
               83                2   15.9188751E-03   59.6218668E-03               0.  -3.88301071E-03
               83                3   4.99580195E-03   42.2132351E-03               0.  -11.2518137E-03
               83                4   12.4581028E-03   47.6602912E-03               0.  -5.60494652E-03
               84                1   10.9431185E-03   38.2695012E-03               0.  -13.0675687E-03
               84                2   12.7101429E-03   43.3447100E-03               0.  -8.37120134E-03
               84                3   8.21772218E-03   28.9963037E-03               0.  -12.1533433E-03
               84                4   9.58990958E-03   32.8643955E-03               0.  -7.88710173E-03
               85                1   12.2986557E-03   39.1327702E-03               0.  -8.80051684E-03
               85                2   12.6290042E-03   41.5005945E-03               0.  -5.53877605E-03
               85                3   9.99246072E-03   31.5203443E-03               0.  -8.48552305E-03
               85                4   10.2702957E-03   33.6648673E-03               0.  -5.34604257E-03
               86                1   9.78796650E-03   29.6658780E-03               0.  -4.55952482E-03
               86                2   8.21706560E-03   24.2567603E-03               0.  -3.80717940E-03
               86                3   11.7603168E-03   29.1229412E-03               0.  -6.33066753E-03
               86                4   10.4308352E-03   24.0757708E-03               0.  -5.75318327E-03
               87                1   8.00795946E-03   21.9391640E-03               0.  -2.33564968E-03
               87                2   7.63475755E-03   20.3010235E-03               0.  -851.099263E-06
               87                3   11.8231708E-03   22.9380857E-03               0.  -2.71954993E-03
               87                4   11.7875738E-03   21.5014406E-03               0.  -1.37854845E-03
               88                1   13.6923837E-03   31.0203247E-03               0.  -4.55134176E-03
               88                2   10.9542860E-03   22.5156359E-03               0.  -5.47767570E-03
               88                3   12.0224226E-03   28.6936536E-03               0.  -7.29813939E-03
               88                4   9.38227866E-03   20.8722129E-03               0.  -8.47393554E-03
               89                1   12.9076065E-03   20.0408865E-03               0.  -1.84958824E-03
               89                2   12.3091675E-03   17.5656807E-03               0.  -1.65689015E-03
               89                3   13.6396484E-03   20.0947709E-03               0.  -2.54555815E-03
               89                4   13.1365499E-03   17.7647322E-03               0.  -2.42348597E-03
               90                1   12.3056294E-03   14.0938917E-03               0.  -3.00410227E-03
               90                2   11.9542265E-03   14.0265431E-03               0.  -3.47736222E-03
               90                3   12.8909647E-03   15.6964157E-03               0.  -2.70692515E-03
               90                4   12.5903115E-03   15.7229286E-03               0.  -3.13960295E-03
               91                1   9.75554157E-03   8.89471360E-03               0.  -4.04607970E-03
               91                2   7.20040407E-03   8.15571100E-03               0.  -4.25338000E-03
               91                3   10.8992849E-03   9.92728304E-03               0.  -2.98942300E-03
               91                4   8.42893124E-03   9.28109325E-03               0.  -3.09459004E-03
               92                1   2.78134388E-03   3.99924954E-03               0.  -3.87171074E-03
               92                2  -6.67069713E-03   1.12198375E-03               0.  -3.34936799E-03
               92                3   5.21124667E-03   3.68488673E-03               0.  -609.841140E-06
               92                4  -5.04497625E-03   429.947599E-06               0.   388.077722E-06
               93                1   9.09249391E-03   19.1801731E-03               0.  -8.58684164E-03
               93                2   7.00453110E-03   19.3259772E-03               0.  -9.92799271E-03
               93                3   11.5075503E-03   24.3756045E-03               0.  -7.04581849E-03
               93                4   9.87953600E-03   25.1228996E-03               0.  -8.09151120E-03
               94                1   5.51526342E-03   14.2570417E-03               0.  -10.2870967E-03
               94                2   3.45043908E-03   14.3225975E-03               0.  -11.0691590E-03
               94                3   7.68654281E-03   17.8639963E-03               0.  -8.85148440E-03
               94                4   5.91216702E-03   18.3715913E-03               0.  -9.44701862E-03
               95                1   4.22236649E-03   8.43944028E-03               0.  -8.50169174E-03
               95                2  -477.067282E-06   6.85223145E-03               0.  -7.80001143E-03
               95                3   6.40311185E-03   8.40585865E-03               0.  -6.84589148E-03
               95                4   1.93576468E-03   6.78222207E-03               0.  -5.88965835E-03
               96                1   11.6823995E-03   42.4928702E-03               0.   17.8401172E-03
               96                2   15.5020887E-03   38.7841091E-03               0.   19.2843210E-03
               96                3   7.25008454E-03   35.3354476E-03               0.   15.0174322E-03
               96                4   10.8155711E-03   32.4594229E-03               0.   16.4241474E-03
               97                1   7.02820206E-03   39.2210782E-03               0.   9.53469798E-03
               97                2   6.03456004E-03   35.9169990E-03               0.   11.3736466E-03
               97                3   5.98454708E-03   35.7481912E-03               0.   8.88963416E-03
               97                4   5.07203816E-03   32.7007920E-03               0.   10.4607474E-03
               98                1   6.74497709E-03   34.7324014E-03               0.   8.38821102E-03
               98                2   4.35698777E-03   32.4629992E-03               0.   9.67335515E-03
               98                3   6.85355114E-03   33.5013084E-03               0.   8.57243501E-03
               98                4   4.81948955E-03   31.3617364E-03               0.   9.70504060E-03
               99                1   5.05207200E-03   27.6970547E-03               0.   11.1729065E-03
               99                2   6.33333158E-03   29.5618419E-03               0.   12.0828450E-03
               99                3   5.33081451E-03   25.3966562E-03               0.   11.7058130E-03
               99                4   6.47263788E-03   26.6583841E-03               0.   12.5686107E-03
              100                1   8.90597608E-03   20.5345508E-03               0.   13.9933806E-03
              100                2   11.4850011E-03   22.7317642E-03               0.   15.2675668E-03
              100                3   10.6339203E-03   18.7377669E-03               0.   13.5989096E-03
              100                4   13.5429129E-03   20.7049195E-03               0.   14.8412874E-03
              101                1   7.40113808E-03   7.06297345E-03               0.   6.26244862E-03
              101                2   5.31968893E-03   5.77571103E-03               0.   7.83477630E-03
              101                3   10.1442654E-03   7.70892575E-03               0.   6.48210151E-03
              101                4   8.28378927E-03   6.55749673E-03               0.   7.88529404E-03
              102                1   1.81293511E-03   601.983222E-06               0.   531.972153E-06
              102                2   62.7803311E-06   70.1364625E-06               0.   4.05857805E-03
              102                3   10.2086775E-03   3.12172296E-03               0.   882.894616E-06
              102                4   7.85777904E-03   2.40802229E-03               0.   4.14089859E-03
              103                1   11.1807175E-03   17.6048353E-03               0.   7.42487656E-03
              103                2   7.66072003E-03   10.3968577E-03               0.   9.66674089E-03
              103                3   13.2070603E-03   16.7654436E-03               0.   6.08126214E-03
              103                4   10.2483174E-03   10.3109032E-03               0.   7.95960985E-03
              104                1   12.9675455E-03   6.39778003E-03               0.   2.99718790E-03
              104                2   11.4077106E-03   4.13530460E-03               0.   4.43613343E-03
              104                3   15.7991294E-03   7.12597882E-03               0.   2.52823741E-03
              104                4   14.3651208E-03   4.98277461E-03               0.   3.88945616E-03
              105                1   16.2094794E-03   6.16299314E-03               0.   3.37664224E-03
              105                2   18.3611158E-03   6.88128266E-03               0.   2.17915792E-03
              105                3   17.7469440E-03   9.78127681E-03               0.   2.33378401E-03
              105                4   19.8312886E-03   10.6661282E-03               0.   1.16390584E-03
              106                1   19.3320867E-03   6.91990275E-03               0.   1.55450765E-03
              106                2   20.2478822E-03   7.28724804E-03               0.   364.324922E-06
              106                3   20.3290656E-03   9.98472236E-03               0.   1.16122118E-03
              106                4   21.2573633E-03   10.5707273E-03               0.   28.2798756E-06
              107                1   10.8588021E-03   10.3709130E-03               0.   7.72938086E-03
              107                2   14.6126915E-03   12.8810825E-03               0.   4.15287726E-03
              107                3   14.2887002E-03   19.2365199E-03               0.   5.83251286E-03
              107                4   17.9987382E-03   22.5097388E-03               0.   2.46692542E-03
              108                1   15.5109325E-03   10.8568426E-03               0.   3.15927784E-03
              108                2   17.8590473E-03   12.6174986E-03               0.   495.265820E-06
              108                3   17.4485892E-03   16.8414675E-03               0.   2.38747452E-03
              108                4   19.8152456E-03   18.9864412E-03               0.  -176.033645E-06
              109                1   15.4541461E-03   21.8341574E-03               0.   206.256969E-06
              109                2   17.7014861E-03   29.4061191E-03               0.  -123.016041E-06
              109                3   13.4404860E-03   19.1052910E-03               0.   3.40489112E-03
              109                4   15.4740047E-03   26.1773933E-03               0.   3.25210229E-03
              110                1   12.0166866E-03   33.4673300E-03               0.   674.215669E-06
              110                2   15.1870223E-03   44.1414528E-03               0.   443.965051E-06
              110                3   9.75793693E-03   29.4103324E-03               0.   4.89222025E-03
              110                4   12.7625018E-03   39.8652367E-03               0.   5.02579566E-03
              111                1   4.20988491E-03   49.5845079E-03               0.   2.30450998E-03
              111                2   9.28074773E-03   66.3609132E-03               0.   2.94433418E-03
              111                3   4.06278623E-03   45.2375412E-03               0.   8.31173453E-03
              111                4   9.70788021E-03   63.5371804E-03               0.   9.61877964E-03
              112                1   12.7384253E-03   24.5831702E-03               0.   4.38874681E-03
              112                2   14.8592256E-03   33.2677253E-03               0.   3.82173737E-03
              112                3   8.10756348E-03   20.1943312E-03               0.   8.39230418E-03
              112                4   9.52949468E-03   27.7277138E-03               0.   8.31490941E-03
              113                1   10.0659886E-03   36.6125517E-03               0.   5.50777651E-03
              113                2   12.3563670E-03   44.5388332E-03               0.   5.99537464E-03
              113                3   8.41640495E-03   32.6431207E-03               0.   8.81717727E-03
              113                4   10.4905171E-03   40.0592722E-03               0.   9.68586188E-03
              114                1   5.63924294E-03   46.3469252E-03               0.   11.0135563E-03
              114                2   10.6751742E-03   59.9725358E-03               0.   13.6585683E-03
              114                3   8.69010109E-03   41.6611657E-03               0.   15.5429505E-03
              114                4   14.2089669E-03   54.9474321E-03               0.   18.8129358E-03
              115                1   12.8696058E-03   43.7162258E-03               0.   19.2402638E-03
              115                2   17.9697946E-03   38.9972031E-03               0.   20.8469462E-03
              115                3   8.32731929E-03   36.2018496E-03               0.   16.2970070E-03
              115                4   12.8599703E-03   32.2312489E-03               0.   17.7560113E-03
              116                1   7.89788272E-03   39.3660069E-03               0.   11.5789324E-03
              116                2   8.48706160E-03   36.0795856E-03               0.   12.8983660E-03
              116                3   6.48619281E-03   36.0768773E-03               0.   10.7243787E-03
              116                4   6.79082191E-03   32.8030288E-03               0.   11.7298812E-03
              117                1   5.13140624E-03   32.1291238E-03               0.   11.4301341E-03
              117                2   4.27480601E-03   31.9750160E-03               0.   11.2131266E-03
              117                3   3.88763053E-03   31.5940678E-03               0.   11.9067272E-03
              117                4   2.98788515E-03   31.3887224E-03               0.   11.7901582E-03
              118                1   4.64225980E-03   29.3547641E-03               0.   11.3761593E-03
              118                2   4.57167253E-03   30.9419017E-03               0.   11.8643837E-03
              118                3   3.14631313E-03   26.3574738E-03               0.   12.4209886E-03
              118                4   2.86271051E-03   27.4647325E-03               0.   13.0426809E-03
              119                1   6.95551839E-03   21.0869927E-03               0.   12.8946789E-03
              119                2   9.13963560E-03   23.2088305E-03               0.   14.0537070E-03
              119                3   7.92390388E-03   19.3878915E-03               0.   12.6895690E-03
              119                4   10.3760352E-03   21.3562082E-03               0.   13.8785988E-03
              120                1   1.92812714E-03   6.88155740E-03               0.   5.92648098E-03
              120                2  -433.548819E-06   6.99079316E-03               0.   7.80675607E-03
              120                3   6.36936864E-03   8.51164479E-03               0.   6.89598778E-03
              120                4   4.25006123E-03   8.58481973E-03               0.   8.52732547E-03
              121                1  -5.02061751E-03   411.743415E-06               0.  -372.389011E-06
              121                2  -6.62432192E-03   1.12862966E-03               0.   3.35849100E-03
              121                3   5.17560448E-03   3.65649839E-03               0.   645.198685E-06
              121                4   2.80738901E-03   4.00180044E-03               0.   3.89080262E-03
              122                1   5.95573569E-03   18.4388384E-03               0.   9.48947389E-03
              122                2   3.46950465E-03   14.2709194E-03               0.   11.1252777E-03
              122                3   7.68786855E-03   17.9130323E-03               0.   8.86971410E-03
              122                4   5.48204966E-03   14.2002543E-03               0.   10.3222253E-03
              123                1   8.45092256E-03   9.33825597E-03               0.   3.10060522E-03
              123                2   7.21447449E-03   8.17117002E-03               0.   4.26700432E-03
              123                3   10.9257130E-03   9.98476893E-03               0.   2.97853141E-03
              123                4   9.75007098E-03   8.90434626E-03               0.   4.04794794E-03
              124                1   9.84527078E-03   25.0686873E-03               0.   8.09202902E-03
              124                2   6.96411310E-03   19.2881599E-03               0.   9.93386842E-03
              124                3   11.4844106E-03   24.3267454E-03               0.   7.04867858E-03
              124                4   9.07123368E-03   19.1452000E-03               0.   8.59053247E-03
              125                1   12.5688603E-03   15.6858414E-03               0.   3.13365785E-03
              125                2   11.9309239E-03   14.0113663E-03               0.   3.47933942E-03
              125                3   12.8854439E-03   15.6655516E-03               0.   2.70751561E-03
              125                4   12.2995293E-03   14.0842926E-03               0.   3.01207299E-03
              126                1   13.1369550E-03   17.7610051E-03               0.   2.42491113E-03
              126                2   12.3140728E-03   17.5624620E-03               0.   1.66086084E-03
              126                3   13.6323348E-03   20.0724155E-03               0.   2.54130433E-03
              126                4   12.9053798E-03   20.0165994E-03               0.   1.84889697E-03
              127                1   11.7928488E-03   21.5032902E-03               0.   1.37876323E-03
              127                2   7.63571262E-03   20.3013830E-03               0.   850.808457E-06
              127                3   11.8224313E-03   22.9368452E-03               0.   2.71837017E-03
              127                4   8.00661556E-03   21.9368562E-03               0.   2.33384385E-03
              128                1   9.37638525E-03   20.8602324E-03               0.   8.47707968E-03
              128                2   10.9504014E-03   22.4923864E-03               0.   5.47684310E-03
              128                3   12.0124575E-03   28.6696311E-03               0.   7.30451010E-03
              128                4   13.6858616E-03   30.9893135E-03               0.   4.55208262E-03
              129                1   10.4383305E-03   24.0774062E-03               0.   5.75176207E-03
              129                2   8.21799506E-03   24.2525078E-03               0.   3.80484527E-03
              129                3   11.7671862E-03   29.1197542E-03               0.   6.33095996E-03
              129                4   9.78808384E-03   29.6581388E-03               0.   4.55844775E-03
              130                1   10.2686910E-03   33.6564369E-03               0.   5.34577668E-03
              130                2   12.6276379E-03   41.4926633E-03               0.   5.53961471E-03
              130                3   9.99462046E-03   31.5165147E-03               0.   8.48667510E-03
              130                4   12.3006850E-03   39.1275883E-03               0.   8.80359113E-03
              131                1   12.4564851E-03   47.6533733E-03               0.   5.60556492E-03
              131                2   15.9169603E-03   59.6159846E-03               0.   3.88493249E-03
              131                3   4.99884598E-03   42.2113016E-03               0.   11.2512866E-03
              131                4   8.32474045E-03   55.0807640E-03               0.   9.69208777E-03
              132                1   9.58420429E-03   32.8443833E-03               0.   7.88148865E-03
              132                2   12.7025386E-03   43.3152765E-03               0.   8.37235432E-03
              132                3   8.22807383E-03   29.0007573E-03               0.   12.1424533E-03
              132                4   10.9493984E-03   38.2550210E-03               0.   13.0658858E-03
              133                1   4.99081379E-03   45.5672815E-03               0.   13.5592446E-03
              133                2   9.49311536E-03   57.7025004E-03               0.   16.1064193E-03
              133                3   9.52707138E-03   41.4867736E-03               0.   17.9273412E-03
              133                4   14.5241506E-03   53.2030240E-03               0.   20.9335890E-03
              134                1   13.5409599E-03   20.7108539E-03               0.  -14.8345334E-03
              134                2   11.4815161E-03   22.7235183E-03               0.  -15.2629986E-03
              134                3   10.6356302E-03   18.7478382E-03               0.  -13.5951201E-03
              134                4   8.90388992E-03   20.5314811E-03               0.  -13.9907235E-03
              135                1   6.47910684E-03   26.6971663E-03               0.  -12.5539014E-03
              135                2   6.32438995E-03   29.5595955E-03               0.  -12.0776957E-03
              135                3   5.33657055E-03   25.4396573E-03               0.  -11.6973314E-03
              135                4   5.04275179E-03   27.7050752E-03               0.  -11.1718429E-03
              136                1   4.80935071E-03   31.3632190E-03               0.  -9.70298611E-03
              136                2   4.35276935E-03   32.4978940E-03               0.  -9.67747718E-03
              136                3   6.84995297E-03   33.5227735E-03               0.  -8.56141094E-03
              136                4   6.75038574E-03   34.7811729E-03               0.  -8.38070828E-03
              137                1   5.07289916E-03   32.7371359E-03               0.  -10.4820840E-03
              137                2   6.01754291E-03   35.8936936E-03               0.  -11.3799255E-03
              137                3   5.97968092E-03   35.7652865E-03               0.  -8.90273787E-03
              137                4   7.02128047E-03   39.2313823E-03               0.  -9.54575092E-03
              138                1   10.7400389E-03   32.3656388E-03               0.  -16.3383316E-03
              138                2   15.5151458E-03   38.7962051E-03               0.  -19.2502867E-03
              138                3   7.18713365E-03   35.3201181E-03               0.  -14.9584748E-03
              138                4   11.6788819E-03   42.5380282E-03               0.  -17.8164672E-03
              139                1   14.1961584E-03   54.9026988E-03               0.  -18.7845509E-03
              139                2   10.6958328E-03   59.8798506E-03               0.  -13.6548020E-03
              139                3   8.65454786E-03   41.6053273E-03               0.  -15.4894963E-03
              139                4   5.61677897E-03   46.2013260E-03               0.  -10.9746018E-03
              140                1   9.77050420E-03   63.5320768E-03               0.  -9.65247024E-03
              140                2   9.28936340E-03   66.3323551E-03               0.  -2.94760708E-03
              140                3   4.11126763E-03   45.2231131E-03               0.  -8.29719100E-03
              140                4   4.19398956E-03   49.4839810E-03               0.  -2.28356151E-03
              141                1   10.4496768E-03   39.9839580E-03               0.  -9.65435151E-03
              141                2   12.3349484E-03   44.4374345E-03               0.  -5.96223073E-03
              141                3   8.41883849E-03   32.7013806E-03               0.  -8.82012304E-03
              141                4   10.0999475E-03   36.6955251E-03               0.  -5.51237212E-03
              142                1   12.7484202E-03   39.8551226E-03               0.  -5.02846064E-03
              142                2   15.1778618E-03   44.1090576E-03               0.  -436.748698E-06
              142                3   9.73673631E-03   29.3915104E-03               0.  -4.91911964E-03
              142                4   12.0339990E-03   33.5286371E-03               0.  -674.304029E-06
              143                1   9.52775311E-03   27.8239194E-03               0.  -8.31836276E-03
              143                2   14.8547366E-03   33.3927684E-03               0.  -3.82356020E-03
              143                3   8.09877366E-03   20.2708095E-03               0.  -8.39394890E-03
              143                4   12.7204340E-03   24.6564802E-03               0.  -4.39009024E-03
              144                1   15.4449549E-03   26.1789709E-03               0.  -3.24664009E-03
              144                2   17.7116990E-03   29.4691306E-03               0.   126.048704E-06
              144                3   13.4155620E-03   19.1150345E-03               0.  -3.40608973E-03
              144                4   15.4645266E-03   21.8960457E-03               0.  -210.824175E-06
              145                1   19.8259279E-03   19.0418083E-03               0.   180.636795E-06
              145                2   17.8604331E-03   12.6415510E-03               0.  -495.926070E-06
              145                3   17.4387470E-03   16.8588385E-03               0.  -2.38910969E-03
              145                4   15.4974377E-03   10.8586531E-03               0.  -3.16268182E-03
              146                1   21.2605502E-03   10.5860159E-03               0.  -25.7059128E-06
              146                2   20.2475768E-03   7.29089649E-03               0.  -363.127881E-06
              146                3   20.3280039E-03   9.99395363E-03               0.  -1.16143748E-03
              146                4   19.3288084E-03   6.92124944E-03               0.  -1.55543291E-03
              147                1   17.9917105E-03   22.5568190E-03               0.  -2.47074361E-03
              147                2   14.6023240E-03   12.9005061E-03               0.  -4.15303372E-03
              147                3   14.2923202E-03   19.2951802E-03               0.  -5.83447469E-03
              147                4   10.8569227E-03   10.3986636E-03               0.  -7.73050077E-03
              148                1   19.8266115E-03   10.6666610E-03               0.  -1.16655545E-03
              148                2   18.3580983E-03   6.88122492E-03               0.  -2.18031765E-03
              148                3   17.7467652E-03   9.78486333E-03               0.  -2.33492395E-03
              148                4   16.2101053E-03   6.16452005E-03               0.  -3.37696238E-03
              149                1   14.3673467E-03   4.98534460E-03               0.  -3.88990506E-03
              149                2   11.4115914E-03   4.13866201E-03               0.  -4.43775300E-03
              149                3   15.8009585E-03   7.13305455E-03               0.  -2.52869306E-03
              149                4   12.9719153E-03   6.40656240E-03               0.  -2.99833366E-03
              150                1   7.86186941E-03   2.40865909E-03               0.  -4.14345739E-03
              150                2   69.0742527E-06   71.3833724E-06               0.  -4.06015757E-03
              150                3   10.2087362E-03   3.11922631E-03               0.  -887.048373E-06
              150                4   1.81776448E-03   600.708125E-06               0.  -534.017337E-06
              151                1   10.2416966E-03   10.3280488E-03               0.  -7.96443876E-03
              151                2   7.67132174E-03   10.4238344E-03               0.  -9.66840424E-03
              151                3   13.1868273E-03   16.7702585E-03               0.  -6.09652931E-03
              151                4   11.1796437E-03   17.6230278E-03               0.  -7.43527431E-03
              152                1   8.28947779E-03   6.57024793E-03               0.  -7.89021421E-03
              152                2   5.32879634E-03   5.78848785E-03               0.  -7.83660915E-03
              152                3   10.1433052E-03   7.71158561E-03               0.  -6.49061473E-03
              152                4   7.40417419E-03   7.06498744E-03               0.  -6.26795134E-03


